 DBCSR| CPU Multiplication driver                                           BLAS (U)
 DBCSR| Multrec recursion limit                                              512 (U)
 DBCSR| Multiplication stack size                                           1000 (D)
 DBCSR| Maximum elements for images                                    UNLIMITED (U)
 DBCSR| Multiplicative factor virtual images                                   1 (U)
 DBCSR| Use multiplication densification                                       T (D)
 DBCSR| Multiplication size stacks                                             3 (U)
 DBCSR| Use memory pool for CPU allocation                                     F (U)
 DBCSR| Number of 3D layers                                               SINGLE (U)
 DBCSR| Use MPI memory allocation                                              F (U)
 DBCSR| Use RMA algorithm                                                      F (U)
 DBCSR| Use Communication thread                                               T (U)
 DBCSR| Communication thread load                                             75 (D)
 DBCSR| MPI: My process id                                                     0
 DBCSR| MPI: Number of processes                                              48
 DBCSR| OMP: Current number of threads                                         4
 DBCSR| OMP: Max number of threads                                             4
 DBCSR| Split modifier for TAS multiplication algorithm                  1.0E+00 (U)


  **** **** ******  **  PROGRAM STARTED AT               2026-02-06 11:28:03.187
 ***** ** ***  *** **   PROGRAM STARTED ON                                cn1505
 **    ****   ******    PROGRAM STARTED BY                              eprop2d2
 ***** **    ** ** **   PROGRAM PROCESS ID                                783602
  **** **  *******  **  PROGRAM STARTED IN /scratch/hpc-prf-metdyn/eprop2d2_Max/
                                           02_lsGW_Nanographenes_Farming_runs/16
                                           _SZV-mini_after_bugfix_dist/00103_GW_
                                           nanographene_4_stripes__BASIS_SET ORB
                                           _aug-SZV-MOLOPT-ae-mini_BASIS_SET RI_
                                           AUX_RI_aug-SZV-MOLOPT-ae-mini_tier1_E
                                           PS_FILTER_1e-8_NUM_TIME_FREQ_POINTS_1
                                           5_POISSON_SOLVER_MULTIPOLE_BASIS_SET_
                                           FILE_NAME_BASIS_augMOLOPT_SR_as_mini

 CP2K| version string:                 CP2K version 2026.1 (Development Version)
 CP2K| source code revision number:                                   5c517a4e77
 CP2K| cp2kflags: omp libint fftw3 libxc elpa parallel scalapack cosma xsmm     
 CP2K| is freely available from                            https://www.cp2k.org/
 CP2K| Program compiled at                                   2026-02-05 15:00:46
 CP2K| Program compiled on                                                login1
 CP2K| Program compiled for                                               x86_64
 CP2K| Data directory path    /opt/software/pc2/EB-SW/software/CP2K/2025.2-foss-
 CP2K| Input file name                                                    GW.inp

 GLOBAL| Force Environment number                                              1
 GLOBAL| Basis set file name                          BASIS_augMOLOPT_SR_as_mini
 GLOBAL| Potential file name                                      ALL_POTENTIALS
 GLOBAL| MM Potential file name                                     MM_POTENTIAL
 GLOBAL| Coordinate file name                                 Nanographene_4.xyz
 GLOBAL| Method name                                                        CP2K
 GLOBAL| Project name                                                    MOLNAME
 GLOBAL| Run type                                                         ENERGY
 GLOBAL| FFT library                                                       FFTW3
 GLOBAL| Diagonalization library                                            ELPA
 GLOBAL| Cholesky decomposition library                                ScaLAPACK
 GLOBAL| DGEMM library                                                      BLAS
 GLOBAL| Minimum number of eigenvectors for ELPA usage                        64
 GLOBAL| Orthonormality check for eigenvectors                          DISABLED
 GLOBAL| Matrix multiplication library                                     COSMA
 GLOBAL| All-to-all communication in single precision                          F
 GLOBAL| FFTs using library dependent lengths                                  T
 GLOBAL| Grid backend                                                       AUTO
 GLOBAL| Global print level                                               MEDIUM
 GLOBAL| MPI I/O enabled                                                       T
 GLOBAL| Total number of message passing processes                            48
 GLOBAL| Number of distributed systems (nodes)                                 1
 GLOBAL| Number of threads for this process                                    4
 GLOBAL| This output is from process                                           0
 GLOBAL| OpenMP stack size per thread (OMP_STACKSIZE)                    default
 GLOBAL| CPU model name                          AMD EPYC 9655 96-Core Processor
 GLOBAL| CPUID                                                              1003

 MEMORY| system memory details [Kb]
 MEMORY|                        rank 0           min           max       average
 MEMORY| MemTotal            791039056     791039056     791039056     791039056
 MEMORY| MemFree             753839560     753839560     753839560     753839560
 MEMORY| Buffers                  3200          3200          3200          3200
 MEMORY| Cached                8544920       8544920       8544920       8544920
 MEMORY| Slab                  1860224       1860224       1860224       1860224
 MEMORY| SReclaimable           660184        660184        660184        660184
 MEMORY| MemLikelyFree       763047864     763047864     763047864     763047864


 *** Fundamental physical constants (SI units) ***

 *** Literature: B. J. Mohr and B. N. Taylor,
 ***             CODATA recommended values of the fundamental physical
 ***             constants: 2006, Web Version 5.1
 ***             http://physics.nist.gov/constants

 Speed of light in vacuum [m/s]                             2.99792458000000E+08
 Magnetic constant or permeability of vacuum [N/A**2]       1.25663706143592E-06
 Electric constant or permittivity of vacuum [F/m]          8.85418781762039E-12
 Planck constant (h) [J*s]                                  6.62606896000000E-34
 Planck constant (h-bar) [J*s]                              1.05457162825177E-34
 Elementary charge [C]                                      1.60217648700000E-19
 Electron mass [kg]                                         9.10938215000000E-31
 Electron g factor [ ]                                     -2.00231930436220E+00
 Proton mass [kg]                                           1.67262163700000E-27
 Fine-structure constant                                    7.29735253760000E-03
 Rydberg constant [1/m]                                     1.09737315685270E+07
 Avogadro constant [1/mol]                                  6.02214179000000E+23
 Boltzmann constant [J/K]                                   1.38065040000000E-23
 Atomic mass unit [kg]                                      1.66053878200000E-27
 Bohr radius [m]                                            5.29177208590000E-11

 *** Conversion factors ***

 [u] -> [a.u.]                                              1.82288848426455E+03
 [Angstrom] -> [Bohr] = [a.u.]                              1.88972613288564E+00
 [a.u.] = [Bohr] -> [Angstrom]                              5.29177208590000E-01
 [a.u.] -> [s]                                              2.41888432650478E-17
 [a.u.] -> [fs]                                             2.41888432650478E-02
 [a.u.] -> [J]                                              4.35974393937059E-18
 [a.u.] -> [N]                                              8.23872205491840E-08
 [a.u.] -> [K]                                              3.15774647902944E+05
 [a.u.] -> [kJ/mol]                                         2.62549961709828E+03
 [a.u.] -> [kcal/mol]                                       6.27509468713739E+02
 [a.u.] -> [Pa]                                             2.94210107994716E+13
 [a.u.] -> [bar]                                            2.94210107994716E+08
 [a.u.] -> [atm]                                            2.90362800883016E+08
 [a.u.] -> [eV]                                             2.72113838565563E+01
 [a.u.] -> [Hz]                                             6.57968392072181E+15
 [a.u.] -> [1/cm] (wave numbers)                            2.19474631370540E+05
 [a.u./Bohr**2] -> [1/cm]                                   5.14048714338585E+03
 

 CELL_TOP| Volume [angstrom^3]:                                      8559.181345
 CELL_TOP| Vector a [angstrom    21.190     0.000     0.000   |a| =    21.190000
 CELL_TOP| Vector b [angstrom     0.000    29.810     0.000   |b| =    29.810000
 CELL_TOP| Vector c [angstrom     0.000     0.000    13.550   |c| =    13.550000
 CELL_TOP| Angle (b,c), alpha [degree]:                                90.000000
 CELL_TOP| Angle (a,c), beta  [degree]:                                90.000000
 CELL_TOP| Angle (a,b), gamma [degree]:                                90.000000
 CELL_TOP| Numerically orthorhombic:                                         YES
 CELL_TOP| Periodicity                                                      NONE

 GENERATE|  Preliminary Number of Bonds generated:                             0
 GENERATE|  Achieved consistency in connectivity generation.

 CELL| Volume [angstrom^3]:                                          8559.181345
 CELL| Vector a [angstrom]:      21.190     0.000     0.000   |a| =    21.190000
 CELL| Vector b [angstrom]:       0.000    29.810     0.000   |b| =    29.810000
 CELL| Vector c [angstrom]:       0.000     0.000    13.550   |c| =    13.550000
 CELL| Angle (b,c), alpha [degree]:                                    90.000000
 CELL| Angle (a,c), beta  [degree]:                                    90.000000
 CELL| Angle (a,b), gamma [degree]:                                    90.000000
 CELL| Numerically orthorhombic:                                             YES
 CELL| Periodicity                                                          NONE

 CELL_REF| Volume [angstrom^3]:                                      8559.181345
 CELL_REF| Vector a [angstrom    21.190     0.000     0.000   |a| =    21.190000
 CELL_REF| Vector b [angstrom     0.000    29.810     0.000   |b| =    29.810000
 CELL_REF| Vector c [angstrom     0.000     0.000    13.550   |c| =    13.550000
 CELL_REF| Angle (b,c), alpha [degree]:                                90.000000
 CELL_REF| Angle (a,c), beta  [degree]:                                90.000000
 CELL_REF| Angle (a,b), gamma [degree]:                                90.000000
 CELL_REF| Numerically orthorhombic:                                         YES
 CELL_REF| Periodicity                                                      NONE

 *******************************************************************************
 *******************************************************************************
 **                                                                           **
 **     #####                         ##              ##                      **
 **    ##   ##            ##          ##              ##                      **
 **   ##     ##                       ##            ######                    **
 **   ##     ##  ##   ##  ##   #####  ##  ##   ####   ##    #####    #####    **
 **   ##     ##  ##   ##  ##  ##      ## ##   ##      ##   ##   ##  ##   ##   **
 **   ##  ## ##  ##   ##  ##  ##      ####     ###    ##   ######   ######    **
 **    ##  ###   ##   ##  ##  ##      ## ##      ##   ##   ##       ##        **
 **     #######   #####   ##   #####  ##  ##  ####    ##    #####   ##        **
 **           ##                                                    ##        **
 **                                                                           **
 **                                                ... make the atoms dance   **
 **                                                                           **
 **            Copyright (C) by CP2K developers group (2000-2026)             **
 **                      J. Chem. Phys. 152, 194103 (2020)                    **
 **                                                                           **
 *******************************************************************************

 DFT| Spin restricted Kohn-Sham (RKS) calculation                            RKS
 DFT| Multiplicity                                                             1
 DFT| Number of spin states                                                    1
 DFT| Charge                                                                   0
 DFT| Self-interaction correction (SIC)                                       NO
 DFT| Cutoffs: density                                              1.000000E-10
 DFT|          gradient                                             1.000000E-10
 DFT|          tau                                                  1.000000E-10
 DFT|          cutoff_smoothing_range                               0.000000E+00
 DFT| XC density smoothing                                                  NONE
 DFT| XC derivatives                                                          PW

 FUNCTIONAL| PBE:
 FUNCTIONAL| J.P.Perdew, K.Burke, M.Ernzerhof, Phys. Rev. Letter, vol. 77, n 18,
 FUNCTIONAL|  pp. 3865-3868, (1996) {spin unpolarized}                          


 QS| Method:                                                                GAPW
 QS| Density plane wave grid type                        NON-SPHERICAL FULLSPACE
 QS| Number of grid levels:                                                    4
 QS| Density cutoff [a.u.]:                                                300.0
 QS| Multi grid cutoff [a.u.]: 1) grid level                               300.0
 QS|                           2) grid level                               100.0
 QS|                           3) grid level                                33.3
 QS|                           4) grid level                                11.1
 QS| Grid level progression factor:                                          3.0
 QS| Relative density cutoff [a.u.]:                                        30.0
 QS| Interaction thresholds: eps_pgf_orb:                                3.2E-08
 QS|                         eps_filter_matrix:                          0.0E+00
 QS|                         eps_core_charge:                            1.0E-17
 QS|                         eps_rho_gspace:                             1.0E-15
 QS|                         eps_rho_rspace:                             1.0E-15
 QS|                         eps_gvg_rspace:                             3.2E-08
 QS|                         eps_ppl:                                    1.0E-02
 QS|                         eps_ppnl:                                   3.2E-10
 QS| GAPW|      One center basis from orbital basis primitives
 QS| GAPW|                   eps_fit:                                    1.0E-04
 QS| GAPW|                   eps_iso:                                    1.0E-12
 QS| GAPW|                   eps_svd:                                    1.0E-08
 QS| GAPW|                   eps_cpc:                                    1.0E-15
 QS| GAPW|   atom-r-grid: quadrature:                                     GC_LOG
 QS| GAPW|      atom-s-grid:  max l :                                          2
 QS| GAPW|      max_l_rho0 :                                                   2
 QS| GAPW|      At least one kind is NOT PAW, i.e. it has only soft AO 
 QS| GAPW|      The NOT PAW atoms are treated fully GPW


 ATOMIC KIND INFORMATION

  1. Atomic kind: H                                     Number of atoms:      24

     Orbital Basis Set                                    aug-SZV-MOLOPT-ae-mini

       Number of orbital shell sets:                                           1
       Number of orbital shells:                                               4
       Number of primitive Cartesian functions:                                4
       Number of Cartesian basis functions:                                    6
       Number of spherical basis functions:                                    6
       Norm type:                                                              2

       Normalised Cartesian orbitals:

                        Set   Shell   Orbital            Exponent    Coefficient

                          1       1    2s                0.065428       0.000000
                                                         0.168855       0.083474
                                                         0.623914       0.267839
                                                         3.425251       0.276934

                          1       2    3s                0.065428      -0.066952
                                                         0.168855       0.261968
                                                         0.623914       0.081548
                                                         3.425251      -0.022414

                          1       3    4s                0.065428       0.165615
                                                         0.168855      -0.226449
                                                         0.623914      -0.005802
                                                         3.425251       0.005451

                          1       4    3px               0.065428       0.053063
                                                         0.168855      -0.030502
                                                         0.623914       0.062721
                                                         3.425251       0.019012
                          1       4    3py               0.065428       0.053063
                                                         0.168855      -0.030502
                                                         0.623914       0.062721
                                                         3.425251       0.019012
                          1       4    3pz               0.065428       0.053063
                                                         0.168855      -0.030502
                                                         0.623914       0.062721
                                                         3.425251       0.019012

     RI Auxiliary Basis Set                      RI_aug-SZV-MOLOPT-ae-mini_tier1

       Number of orbital shell sets:                                           2
       Number of orbital shells:                                               2
       Number of primitive Cartesian functions:                                2
       Number of Cartesian basis functions:                                    2
       Number of spherical basis functions:                                    2
       Norm type:                                                              2

       Normalised Cartesian orbitals:

                        Set   Shell   Orbital            Exponent    Coefficient

                          1       1    1s                0.636484       0.507868

                          2       1    2s                2.457925       1.399061

       Atomic covalent radius [Angstrom]:                                  0.320

       Atomic van der Waals radius [Angstrom]:                             1.090

     AE Potential information for                                            ALL

       Description:                                       All-electron potential
                                          Krack, Parrinello, PCCP 2, 2105 (2000)

       Gaussian exponent of the core charge distribution:              12.500000
       Electronic configuration (s p d ...):                           1   0   0

  2. Atomic kind: C                                     Number of atoms:      56

     Orbital Basis Set                                    aug-SZV-MOLOPT-ae-mini

       Number of orbital shell sets:                                           2
       Number of orbital shells:                                               5
       Number of primitive Cartesian functions:                                7
       Number of Cartesian basis functions:                                    9
       Number of spherical basis functions:                                    9
       Norm type:                                                              2

       Normalised Cartesian orbitals:

                        Set   Shell   Orbital            Exponent    Coefficient

                          1       1    1s               71.616837       2.707801
                                                        13.045096       2.618883
                                                         3.530512       0.816191

                          2       1    2s                0.114558       0.000000
                                                         0.222289       0.161536
                                                         0.683483       0.214036
                                                         2.941249      -0.160017

                          2       2    3s                0.114558       0.000272
                                                         0.222289       0.256636
                                                         0.683483      -0.079244
                                                         2.941249       0.000032

                          2       3    3px               0.114558       0.000000
                                                         0.222289       0.085276
                                                         0.683483       0.538304
                                                         2.941249       0.856044
                          2       3    3py               0.114558       0.000000
                                                         0.222289       0.085276
                                                         0.683483       0.538304
                                                         2.941249       0.856044
                          2       3    3pz               0.114558       0.000000
                                                         0.222289       0.085276
                                                         0.683483       0.538304
                                                         2.941249       0.856044

                          2       4    4px               0.114558      -0.035043
                                                         0.222289      -0.159067
                                                         0.683483       0.106927
                                                         2.941249      -0.036832
                          2       4    4py               0.114558      -0.035043
                                                         0.222289      -0.159067
                                                         0.683483       0.106927
                                                         2.941249      -0.036832
                          2       4    4pz               0.114558      -0.035043
                                                         0.222289      -0.159067
                                                         0.683483       0.106927
                                                         2.941249      -0.036832

     RI Auxiliary Basis Set                      RI_aug-SZV-MOLOPT-ae-mini_tier1

       Number of orbital shell sets:                                           7
       Number of orbital shells:                                               7
       Number of primitive Cartesian functions:                                7
       Number of Cartesian basis functions:                                   11
       Number of spherical basis functions:                                   11
       Norm type:                                                              2

       Normalised Cartesian orbitals:

                        Set   Shell   Orbital            Exponent    Coefficient

                          1       1    1s                0.916541       0.667612

                          2       1    2s                1.427899       0.930964

                          3       1    3s                2.204249       1.289305

                          4       1    4s                3.433303       1.797605

                          5       1    5s                5.397142       2.523673

                          6       1    6px               0.514441       0.621025
                          6       1    6py               0.514441       0.621025
                          6       1    6pz               0.514441       0.621025

                          7       1    7px               1.555827       2.476805
                          7       1    7py               1.555827       2.476805
                          7       1    7pz               1.555827       2.476805

       Atomic covalent radius [Angstrom]:                                  0.770

       Atomic van der Waals radius [Angstrom]:                             1.700

     The atoms of this atomic kind are PAW atoms (GAPW):
       Hard Gaussian function radius:                                      1.512
       Rho0 radius:                                                        1.512
       Maximum GTO radius used for PAW projector construction:            24.566

     GAPW Soft Basis Set                             aug-SZV-MOLOPT-ae-mini_soft

       Number of orbital shell sets:                                           2
       Number of orbital shells:                                               5
       Number of primitive Cartesian functions:                                5
       Number of Cartesian basis functions:                                    9
       Number of spherical basis functions:                                    9
       Norm type:                                                              2

       Normalised Cartesian orbitals:

                        Set   Shell   Orbital            Exponent    Coefficient

                          1       1    1s                3.530512       0.816191

                          2       1    2s                0.114558       0.000000
                                                         0.222289       0.161536
                                                         0.683483       0.214036
                                                         2.941249      -0.160017

                          2       2    3s                0.114558       0.000272
                                                         0.222289       0.256636
                                                         0.683483      -0.079244
                                                         2.941249       0.000032

                          2       3    3px               0.114558       0.000000
                                                         0.222289       0.085276
                                                         0.683483       0.538304
                                                         2.941249       0.856044
                          2       3    3py               0.114558       0.000000
                                                         0.222289       0.085276
                                                         0.683483       0.538304
                                                         2.941249       0.856044
                          2       3    3pz               0.114558       0.000000
                                                         0.222289       0.085276
                                                         0.683483       0.538304
                                                         2.941249       0.856044

                          2       4    4px               0.114558      -0.035043
                                                         0.222289      -0.159067
                                                         0.683483       0.106927
                                                         2.941249      -0.036832
                          2       4    4py               0.114558      -0.035043
                                                         0.222289      -0.159067
                                                         0.683483       0.106927
                                                         2.941249      -0.036832
                          2       4    4pz               0.114558      -0.035043
                                                         0.222289      -0.159067
                                                         0.683483       0.106927
                                                         2.941249      -0.036832

     AE Potential information for                                            ALL

       Description:                                       All-electron potential
                                          Krack, Parrinello, PCCP 2, 2105 (2000)

       Gaussian exponent of the core charge distribution:               4.109048
       Electronic configuration (s p d ...):                           4   2   0


 MOLECULE KIND INFORMATION


 All atoms are their own molecule, skipping detailed information


 TOTAL NUMBERS AND MAXIMUM NUMBERS

  Total number of            - Atomic kinds:                                   2
                             - Atoms:                                         80
                             - Shell sets:                                   136
                             - Shells:                                       376
                             - Primitive Cartesian functions:                488
                             - Cartesian basis functions:                    648
                             - Spherical basis functions:                    648

  Maximum angular momentum of the orbital basis functions:                     1


 MODULE QUICKSTEP: ATOMIC COORDINATES IN ANGSTROM

   Atom Kind Element         X             Y             Z       Z(eff)     Mass
      1    1 H     1     15.191809     22.500034      6.775000   1.0000   1.0079
      2    2 C     6     14.230017     20.621913      6.775000   6.0000  12.0107
      3    2 C     6     14.230017     16.357853      6.775000   6.0000  12.0107
      4    1 H     1     15.191809     13.971915      6.775000   1.0000   1.0079
      5    2 C     6      6.959983     12.093793      6.775000   6.0000  12.0107
      6    2 C     6     14.230017     17.716207      6.775000   6.0000  12.0107
      7    2 C     6     10.595000     11.350363      6.775000   6.0000  12.0107
      8    2 C     6     14.230017     13.452147      6.775000   6.0000  12.0107
      9    1 H     1     15.191809      7.309966      6.775000   1.0000   1.0079
     10    2 C     6     11.818523     22.010512      6.775000   6.0000  12.0107
     11    2 C     6     13.035671      7.095263      6.775000   6.0000  12.0107
     12    2 C     6      8.154329     15.623382      6.775000   6.0000  12.0107
     13    2 C     6      8.154329     18.450677      6.775000   6.0000  12.0107
     14    2 C     6      8.154329     22.714737      6.775000   6.0000  12.0107
     15    2 C     6      9.371477     12.063548      6.775000   6.0000  12.0107
     16    2 C     6     11.818523     13.482393      6.775000   6.0000  12.0107
     17    1 H     1     15.191809     18.235974      6.775000   1.0000   1.0079
     18    2 C     6     10.595000     14.195577      6.775000   6.0000  12.0107
     19    2 C     6      6.959983     20.621913      6.775000   6.0000  12.0107
     20    2 C     6      8.154329     14.186618      6.775000   6.0000  12.0107
     21    1 H     1      8.154329      6.002013      6.775000   1.0000   1.0079
     22    2 C     6     13.035671     18.450677      6.775000   6.0000  12.0107
     23    2 C     6      8.154329     19.887442      6.775000   6.0000  12.0107
     24    2 C     6     14.230017      7.829733      6.775000   6.0000  12.0107
     25    2 C     6     10.595000     18.459637      6.775000   6.0000  12.0107
     26    1 H     1      5.998191      9.707855      6.775000   1.0000   1.0079
     27    2 C     6     11.818523     12.063548      6.775000   6.0000  12.0107
     28    1 H     1     13.035671      6.002013      6.775000   1.0000   1.0079
     29    2 C     6     10.595000     22.723697      6.775000   6.0000  12.0107
     30    2 C     6      9.371477     22.010512      6.775000   6.0000  12.0107
     31    1 H     1     15.191809     20.102145      6.775000   1.0000   1.0079
     32    2 C     6     10.595000     19.878482      6.775000   6.0000  12.0107
     33    1 H     1      5.998191     20.102145      6.775000   1.0000   1.0079
     34    2 C     6     13.035671     14.186618      6.775000   6.0000  12.0107
     35    1 H     1     15.191809     11.574026      6.775000   1.0000   1.0079
     36    1 H     1      5.998191     22.500034      6.775000   1.0000   1.0079
     37    1 H     1     10.595000     23.496742      7.548044   1.0000   1.0079
     38    2 C     6     13.035671     15.623382      6.775000   6.0000  12.0107
     39    2 C     6      6.959983     16.357853      6.775000   6.0000  12.0107
     40    2 C     6      6.959983      7.829733      6.775000   6.0000  12.0107
     41    2 C     6     11.818523      9.218333      6.775000   6.0000  12.0107
     42    2 C     6      9.371477     16.327607      6.775000   6.0000  12.0107
     43    2 C     6     13.035671     19.887442      6.775000   6.0000  12.0107
     44    2 C     6      8.154329      9.922558      6.775000   6.0000  12.0107
     45    2 C     6     10.595000     15.614422      6.775000   6.0000  12.0107
     46    1 H     1     13.035671     23.807987      6.775000   1.0000   1.0079
     47    1 H     1     10.595000     23.496742      6.001956   1.0000   1.0079
     48    2 C     6     11.818523     17.746452      6.775000   6.0000  12.0107
     49    2 C     6     13.035671      9.922558      6.775000   6.0000  12.0107
     50    2 C     6      9.371477      7.799488      6.775000   6.0000  12.0107
     51    2 C     6      9.371477     17.746452      6.775000   6.0000  12.0107
     52    2 C     6     11.818523     20.591667      6.775000   6.0000  12.0107
     53    1 H     1     10.595000      6.313258      6.001956   1.0000   1.0079
     54    1 H     1      5.998191     18.235974      6.775000   1.0000   1.0079
     55    2 C     6      8.154329      7.095263      6.775000   6.0000  12.0107
     56    1 H     1     10.595000      6.313258      7.548044   1.0000   1.0079
     57    2 C     6      6.959983      9.188087      6.775000   6.0000  12.0107
     58    1 H     1      5.998191      7.309966      6.775000   1.0000   1.0079
     59    1 H     1      5.998191     13.971915      6.775000   1.0000   1.0079
     60    2 C     6      9.371477     13.482393      6.775000   6.0000  12.0107
     61    2 C     6     11.818523     16.327607      6.775000   6.0000  12.0107
     62    2 C     6      6.959983     13.452147      6.775000   6.0000  12.0107
     63    2 C     6     14.230017     21.980267      6.775000   6.0000  12.0107
     64    1 H     1     15.191809     15.838085      6.775000   1.0000   1.0079
     65    2 C     6     13.035671     11.359323      6.775000   6.0000  12.0107
     66    2 C     6      6.959983     17.716207      6.775000   6.0000  12.0107
     67    2 C     6     10.595000      7.086303      6.775000   6.0000  12.0107
     68    2 C     6     11.818523      7.799488      6.775000   6.0000  12.0107
     69    2 C     6     14.230017      9.188087      6.775000   6.0000  12.0107
     70    1 H     1      5.998191     15.838085      6.775000   1.0000   1.0079
     71    2 C     6      6.959983     21.980267      6.775000   6.0000  12.0107
     72    2 C     6     10.595000      9.931518      6.775000   6.0000  12.0107
     73    2 C     6      9.371477     20.591667      6.775000   6.0000  12.0107
     74    1 H     1      5.998191     11.574026      6.775000   1.0000   1.0079
     75    2 C     6     14.230017     12.093793      6.775000   6.0000  12.0107
     76    2 C     6      9.371477      9.218333      6.775000   6.0000  12.0107
     77    1 H     1      8.154329     23.807987      6.775000   1.0000   1.0079
     78    2 C     6     13.035671     22.714737      6.775000   6.0000  12.0107
     79    1 H     1     15.191809      9.707855      6.775000   1.0000   1.0079
     80    2 C     6      8.154329     11.359323      6.775000   6.0000  12.0107



 SCF PARAMETERS         Density guess:                                   RESTART
                        --------------------------------------------------------
                        max_scf:                                             200
                        max_scf_history:                                       0
                        max_diis:                                              4
                        --------------------------------------------------------
                        eps_scf:                                        1.00E-06
                        eps_scf_history:                                0.00E+00
                        eps_diis:                                       1.00E-01
                        eps_eigval:                                     1.00E-05
                        --------------------------------------------------------
                        level_shift [a.u.]:                             0.000000
                        added MOs                                       100    0
                        --------------------------------------------------------
                        Mixing method:                            BROYDEN_MIXING
                                                charge density mixing in g-space
                        --------------------------------------------------------
                        Smear method:                                FERMI_DIRAC
                        Electronic temperature [K]:                        100.0
                        Electronic temperature [a.u.]:                  3.17E-04
                        Accuracy threshold:                             1.00E-10
                        --------------------------------------------------------
                        No outer SCF

 PW_GRID| Information for grid number                                          1
 PW_GRID| Grid distributed over                                    48 processors
 PW_GRID| Real space group dimensions                                    48    1
 PW_GRID| the grid is blocked:                                                NO
 PW_GRID| Cutoff [a.u.]                                                    300.0
 PW_GRID| spherical cutoff:                                                   NO
 PW_GRID|   Bounds   1           -157     157                Points:         315
 PW_GRID|   Bounds   2           -220     219                Points:         440
 PW_GRID|   Bounds   3           -100      99                Points:         200
 PW_GRID| Volume element (a.u.^3)  0.2084E-02     Volume (a.u.^3)     57760.2195
 PW_GRID| Grid span                                                    FULLSPACE
 PW_GRID|   Distribution                         Average         Max         Min
 PW_GRID|   G-Vectors                           577500.0      577710      577395
 PW_GRID|   G-Rays                                1833.3        1834        1833
 PW_GRID|   Real Space Points                   577500.0      616000      528000

 PW_GRID| Information for grid number                                          2
 PW_GRID| Number of the reference grid                                         1
 PW_GRID| Grid distributed over                                    48 processors
 PW_GRID| Real space group dimensions                                    48    1
 PW_GRID| the grid is blocked:                                                NO
 PW_GRID| Cutoff [a.u.]                                                    100.0
 PW_GRID| spherical cutoff:                                                   NO
 PW_GRID|   Bounds   1            -94      94                Points:         189
 PW_GRID|   Bounds   2           -128     127                Points:         256
 PW_GRID|   Bounds   3            -60      59                Points:         120
 PW_GRID| Volume element (a.u.^3)  0.9948E-02     Volume (a.u.^3)     57760.2195
 PW_GRID| Grid span                                                    FULLSPACE
 PW_GRID|   Distribution                         Average         Max         Min
 PW_GRID|   G-Vectors                           120960.0      121716      120393
 PW_GRID|   G-Rays                                 640.0         644         637
 PW_GRID|   Real Space Points                   120960.0      122880       92160

 PW_GRID| Information for grid number                                          3
 PW_GRID| Number of the reference grid                                         1
 PW_GRID| Grid distributed over                                    48 processors
 PW_GRID| Real space group dimensions                                    48    1
 PW_GRID| the grid is blocked:                                                NO
 PW_GRID| Cutoff [a.u.]                                                     33.3
 PW_GRID| spherical cutoff:                                                   NO
 PW_GRID|   Bounds   1            -52      52                Points:         105
 PW_GRID|   Bounds   2            -75      74                Points:         150
 PW_GRID|   Bounds   3            -35      34                Points:          70
 PW_GRID| Volume element (a.u.^3)  0.5239E-01     Volume (a.u.^3)     57760.2195
 PW_GRID| Grid span                                                    FULLSPACE
 PW_GRID|   Distribution                         Average         Max         Min
 PW_GRID|   G-Vectors                            22968.8       23940       21945
 PW_GRID|   G-Rays                                 218.8         228         209
 PW_GRID|   Real Space Points                    22968.8       31500       21000

 PW_GRID| Information for grid number                                          4
 PW_GRID| Number of the reference grid                                         1
 PW_GRID| Grid distributed over                                    48 processors
 PW_GRID| Real space group dimensions                                    48    1
 PW_GRID| the grid is blocked:                                                NO
 PW_GRID| Cutoff [a.u.]                                                     11.1
 PW_GRID| spherical cutoff:                                                   NO
 PW_GRID|   Bounds   1            -31      31                Points:          63
 PW_GRID|   Bounds   2            -44      43                Points:          88
 PW_GRID|   Bounds   3            -20      19                Points:          40
 PW_GRID| Volume element (a.u.^3)  0.2605         Volume (a.u.^3)     57760.2195
 PW_GRID| Grid span                                                    FULLSPACE
 PW_GRID|   Distribution                         Average         Max         Min
 PW_GRID|   G-Vectors                             4620.0        5040        4095
 PW_GRID|   G-Rays                                  73.3          80          65
 PW_GRID|   Real Space Points                     4620.0        7040        3520

 POISSON| Solver                                             MULTIPOLE (Bloechl)
 POISSON| Periodicity                                                       NONE

 RS_GRID| Information for grid number                                          1
 RS_GRID|   Bounds   1           -157     157                Points:         315
 RS_GRID|   Bounds   2           -220     219                Points:         440
 RS_GRID|   Bounds   3           -100      99                Points:         200
 RS_GRID| Real space distribution over                                  6 groups
 RS_GRID| Real space distribution along direction                              1
 RS_GRID| Border size                                                         28
 RS_GRID| Real space distribution over                                  8 groups
 RS_GRID| Real space distribution along direction                              2
 RS_GRID| Border size                                                         28
 RS_GRID|   Distribution                         Average         Max         Min
 RS_GRID|   Planes                                 108.5         109         108
 RS_GRID|   Distribution                         Average         Max         Min
 RS_GRID|   Planes                                 111.0         111         111

 RS_GRID| Information for grid number                                          2
 RS_GRID|   Bounds   1            -94      94                Points:         189
 RS_GRID|   Bounds   2           -128     127                Points:         256
 RS_GRID|   Bounds   3            -60      59                Points:         120
 RS_GRID| Real space distribution over                                  6 groups
 RS_GRID| Real space distribution along direction                              1
 RS_GRID| Border size                                                         29
 RS_GRID| Real space distribution over                                  8 groups
 RS_GRID| Real space distribution along direction                              2
 RS_GRID| Border size                                                         29
 RS_GRID|   Distribution                         Average         Max         Min
 RS_GRID|   Planes                                  89.5          90          89
 RS_GRID|   Distribution                         Average         Max         Min
 RS_GRID|   Planes                                  90.0          90          90

 RS_GRID| Information for grid number                                          3
 RS_GRID|   Bounds   1            -52      52                Points:         105
 RS_GRID|   Bounds   2            -75      74                Points:         150
 RS_GRID|   Bounds   3            -35      34                Points:          70
 RS_GRID| Real space fully replicated
 RS_GRID| Group size                                                           1

 RS_GRID| Information for grid number                                          4
 RS_GRID|   Bounds   1            -31      31                Points:          63
 RS_GRID|   Bounds   2            -44      43                Points:          88
 RS_GRID|   Bounds   3            -20      19                Points:          40
 RS_GRID| Real space fully replicated
 RS_GRID| Group size                                                           1

 OVERLAP MATRIX CONDITION NUMBER
 1-Norm Condition Number (Estimate)
   CN : |A|*|A^-1|:  1.858E+001 *  6.541E+003   = 1.215E+005  Log(1-CN):  5.0846
 1-Norm and 2-Norm Condition Numbers using Diagonalization
   CN : |A|*|A^-1|:  1.858E+001 *  6.541E+003   = 1.215E+005  Log(1-CN):  5.0846
   CN : max/min ev:  8.831E+000 /  3.611E-004   = 2.446E+004  Log(2-CN):  4.3884

 Extrapolation method: initial_guess

 *** WARNING in qs_initial_guess.F:308 :: User requested to restart the    ***
 *** wavefunction from the file named: MOLNAME-RESTART.wfn. This file does ***
 *** not exist. Please check the existence of the file or change properly  ***
 *** the value of the keyword WFN_RESTART_FILE_NAME. Calculation continues ***
 *** using ATOMIC GUESS.                                                   ***


 Atomic guess: The first density matrix is obtained in terms of atomic orbitals
               and electronic configurations assigned to each atomic kind

 Guess for atomic kind: H

 Electronic structure
    Total number of core electrons                                          0.00
    Total number of valence electrons                                       1.00
    Total number of electrons                                               1.00
    Multiplicity                                                   not specified
    S      1.00


 *******************************************************************************
                  Iteration          Convergence                     Energy [au]
 *******************************************************************************
                          1        0.105001E-01                  -0.442912571909
                          2        0.809393E-03                  -0.443000038014
                          3        0.126045E-03                  -0.443002205783
                          4        0.926691E-07                  -0.443002227638

 Energy components [Hartree]           Total Energy ::           -0.443002227638
                                        Band Energy ::           -0.231242105371
                                     Kinetic Energy ::            0.416655567325
                                   Potential Energy ::           -0.859657794963
                                      Virial (-V/T) ::            2.063233669195
                                        Core Energy ::           -0.493343888102
                                          XC Energy ::           -0.231659799565
                                     Coulomb Energy ::            0.282001460029

 Orbital energies  State     L     Occupation   Energy[a.u.]          Energy[eV]

                       1     0          1.000      -0.231242           -6.292418


 Total Electron Density at R=0:                                         0.184980

 Guess for atomic kind: C

 Electronic structure
    Total number of core electrons                                          0.00
    Total number of valence electrons                                       6.00
    Total number of electrons                                               6.00
    Multiplicity                                                   not specified
    S      2.00  2.00
    P      2.00


 *******************************************************************************
                  Iteration          Convergence                     Energy [au]
 *******************************************************************************
                          1        0.110940                     -36.966846197933
                          2        0.618479E-01                 -36.973380131832
                          3        0.312040E-03                 -36.976281169724
                          4        0.543046E-05                 -36.976281232084
                          5        0.506045E-09                 -36.976281232104

 Energy components [Hartree]           Total Energy ::          -36.976281232104
                                        Band Energy ::          -20.794821508944
                                     Kinetic Energy ::           36.488299270274
                                   Potential Energy ::          -73.464580502377
                                      Virial (-V/T) ::            2.013373655983
                                        Core Energy ::          -49.914993802944
                                          XC Energy ::           -4.745664989265
                                     Coulomb Energy ::           17.684377560105

 Orbital energies  State     L     Occupation   Energy[a.u.]          Energy[eV]

                       1     0          2.000      -9.777613         -266.062376
                       2     0          2.000      -0.465310          -12.661731

                       1     1          2.000      -0.154488           -4.203828


 Total Electron Density at R=0:                                        77.917232
 Re-scaling the density matrix to get the right number of electrons
                  # Electrons              Trace(P)               Scaling factor
                          360               360.000                        1.000

 Number of electrons:                                                        360
 Number of occupied orbitals:                                                180
 Number of molecular orbitals:                                               280

 Number of orbital functions:                                                648
 Number of independent orbital functions:                                    648


 SCF WAVEFUNCTION OPTIMIZATION

  Step     Update method      Time    Convergence         Total energy    Change
  ------------------------------------------------------------------------------
  Decoupling Energy:                                              -0.0000504823

 MO| EIGENVALUES AND OCCUPATION NUMBERS AFTER SCF STEP 0
 MO|
 MO|  Index      Eigenvalue [a.u.]        Eigenvalue [eV]             Occupation
 MO|      1             -10.011112            -272.416209               2.000000
 MO|      2             -10.011111            -272.416192               2.000000
 MO|      3              -9.983655            -271.669065               2.000000
 MO|      4              -9.983654            -271.669036               2.000000
 MO|      5              -9.983652            -271.668997               2.000000
 MO|      6              -9.983651            -271.668966               2.000000
 MO|      7              -9.982893            -271.648337               2.000000
 MO|      8              -9.982892            -271.648311               2.000000
 MO|      9              -9.982892            -271.648301               2.000000
 MO|     10              -9.982892            -271.648298               2.000000
 MO|     11              -9.982783            -271.645342               2.000000
 MO|     12              -9.982781            -271.645276               2.000000
 MO|     13              -9.982746            -271.644330               2.000000
 MO|     14              -9.982741            -271.644210               2.000000
 MO|     15              -9.982483            -271.637181               2.000000
 MO|     16              -9.982469            -271.636802               2.000000
 MO|     17              -9.982405            -271.635059               2.000000
 MO|     18              -9.982398            -271.634875               2.000000
 MO|     19              -9.977058            -271.489550               2.000000
 MO|     20              -9.977058            -271.489547               2.000000
 MO|     21              -9.977051            -271.489355               2.000000
 MO|     22              -9.977050            -271.489346               2.000000
 MO|     23              -9.961874            -271.076368               2.000000
 MO|     24              -9.961873            -271.076358               2.000000
 MO|     25              -9.961858            -271.075943               2.000000
 MO|     26              -9.961858            -271.075939               2.000000
 MO|     27              -9.959115            -271.001308               2.000000
 MO|     28              -9.959115            -271.001302               2.000000
 MO|     29              -9.959115            -271.001292               2.000000
 MO|     30              -9.959113            -271.001241               2.000000
 MO|     31              -9.958964            -270.997192               2.000000
 MO|     32              -9.958954            -270.996915               2.000000
 MO|     33              -9.958929            -270.996247               2.000000
 MO|     34              -9.958928            -270.996211               2.000000
 MO|     35              -9.958832            -270.993610               2.000000
 MO|     36              -9.958814            -270.993104               2.000000
 MO|     37              -9.958723            -270.990640               2.000000
 MO|     38              -9.958708            -270.990230               2.000000
 MO|     39              -9.958473            -270.983829               2.000000
 MO|     40              -9.958472            -270.983795               2.000000
 MO|     41              -9.958412            -270.982176               2.000000
 MO|     42              -9.958410            -270.982130               2.000000
 MO|     43              -9.958278            -270.978536               2.000000
 MO|     44              -9.958218            -270.976894               2.000000
 MO|     45              -9.958127            -270.974419               2.000000
 MO|     46              -9.958095            -270.973553               2.000000
 MO|     47              -9.958022            -270.971569               2.000000
 MO|     48              -9.957967            -270.970075               2.000000
 MO|     49              -9.957952            -270.969663               2.000000
 MO|     50              -9.957896            -270.968131               2.000000
 MO|     51              -9.957236            -270.950159               2.000000
 MO|     52              -9.957234            -270.950120               2.000000
 MO|     53              -9.956997            -270.943674               2.000000
 MO|     54              -9.956971            -270.942963               2.000000
 MO|     55              -9.956924            -270.941693               2.000000
 MO|     56              -9.956748            -270.936898               2.000000
 MO|     57              -0.955928             -26.012122               2.000000
 MO|     58              -0.950436             -25.862692               2.000000
 MO|     59              -0.939777             -25.572642               2.000000
 MO|     60              -0.931371             -25.343904               2.000000
 MO|     61              -0.924491             -25.156667               2.000000
 MO|     62              -0.924233             -25.149672               2.000000
 MO|     63              -0.913307             -24.852340               2.000000
 MO|     64              -0.900659             -24.508171               2.000000
 MO|     65              -0.895474             -24.367097               2.000000
 MO|     66              -0.884816             -24.077055               2.000000
 MO|     67              -0.881540             -23.987935               2.000000
 MO|     68              -0.874549             -23.797699               2.000000
 MO|     69              -0.873967             -23.781850               2.000000
 MO|     70              -0.859226             -23.380738               2.000000
 MO|     71              -0.851936             -23.182367               2.000000
 MO|     72              -0.836283             -22.756422               2.000000
 MO|     73              -0.832610             -22.656470               2.000000
 MO|     74              -0.823985             -22.421783               2.000000
 MO|     75              -0.816568             -22.219944               2.000000
 MO|     76              -0.813487             -22.136119               2.000000
 MO|     77              -0.810998             -22.068384               2.000000
 MO|     78              -0.801860             -21.819710               2.000000
 MO|     79              -0.799209             -21.747573               2.000000
 MO|     80              -0.795329             -21.641998               2.000000
 MO|     81              -0.788472             -21.455421               2.000000
 MO|     82              -0.772834             -21.029888               2.000000
 MO|     83              -0.767738             -20.891227               2.000000
 MO|     84              -0.752055             -20.464459               2.000000
 MO|     85              -0.750480             -20.421589               2.000000
 MO|     86              -0.721045             -19.620623               2.000000
 MO|     87              -0.720858             -19.615532               2.000000
 MO|     88              -0.711062             -19.348994               2.000000
 MO|     89              -0.710429             -19.331753               2.000000
 MO|     90              -0.707495             -19.251919               2.000000
 MO|     91              -0.705072             -19.185980               2.000000
 MO|     92              -0.702937             -19.127900               2.000000
 MO|     93              -0.686284             -18.674730               2.000000
 MO|     94              -0.681353             -18.540554               2.000000
 MO|     95              -0.677985             -18.448907               2.000000
 MO|     96              -0.655332             -17.832478               2.000000
 MO|     97              -0.650362             -17.697254               2.000000
 MO|     98              -0.648648             -17.650606               2.000000
 MO|     99              -0.642526             -17.484017               2.000000
 MO|    100              -0.634440             -17.263989               2.000000
 MO|    101              -0.630379             -17.153493               2.000000
 MO|    102              -0.621874             -16.922039               2.000000
 MO|    103              -0.616034             -16.763139               2.000000
 MO|    104              -0.607428             -16.528951               2.000000
 MO|    105              -0.606543             -16.504867               2.000000
 MO|    106              -0.599605             -16.316076               2.000000
 MO|    107              -0.585464             -15.931278               2.000000
 MO|    108              -0.582713             -15.856421               2.000000
 MO|    109              -0.582396             -15.847801               2.000000
 MO|    110              -0.567913             -15.453690               2.000000
 MO|    111              -0.566505             -15.415395               2.000000
 MO|    112              -0.564329             -15.356178               2.000000
 MO|    113              -0.563450             -15.332253               2.000000
 MO|    114              -0.554533             -15.089608               2.000000
 MO|    115              -0.554178             -15.079945               2.000000
 MO|    116              -0.547408             -14.895723               2.000000
 MO|    117              -0.542332             -14.757604               2.000000
 MO|    118              -0.538057             -14.641286               2.000000
 MO|    119              -0.536675             -14.603666               2.000000
 MO|    120              -0.534038             -14.531908               2.000000
 MO|    121              -0.527047             -14.341669               2.000000
 MO|    122              -0.526973             -14.339675               2.000000
 MO|    123              -0.522956             -14.230366               2.000000
 MO|    124              -0.516379             -14.051394               2.000000
 MO|    125              -0.516340             -14.050323               2.000000
 MO|    126              -0.510040             -13.878882               2.000000
 MO|    127              -0.509362             -13.860439               2.000000
 MO|    128              -0.505920             -13.766773               2.000000
 MO|    129              -0.505365             -13.751693               2.000000
 MO|    130              -0.503824             -13.709753               2.000000
 MO|    131              -0.498907             -13.575951               2.000000
 MO|    132              -0.495927             -13.494865               2.000000
 MO|    133              -0.495589             -13.485666               2.000000
 MO|    134              -0.487936             -13.277401               2.000000
 MO|    135              -0.487376             -13.262182               2.000000
 MO|    136              -0.484924             -13.195461               2.000000
 MO|    137              -0.482393             -13.126568               2.000000
 MO|    138              -0.480216             -13.067348               2.000000
 MO|    139              -0.477995             -13.006906               2.000000
 MO|    140              -0.475614             -12.942126               2.000000
 MO|    141              -0.473400             -12.881857               2.000000
 MO|    142              -0.463959             -12.624967               2.000000
 MO|    143              -0.460334             -12.526324               2.000000
 MO|    144              -0.453351             -12.336320               2.000000
 MO|    145              -0.453121             -12.330040               2.000000
 MO|    146              -0.452653             -12.317327               2.000000
 MO|    147              -0.444603             -12.098276               2.000000
 MO|    148              -0.442393             -12.038126               2.000000
 MO|    149              -0.442072             -12.029385               2.000000
 MO|    150              -0.440015             -11.973411               2.000000
 MO|    151              -0.439350             -11.955313               2.000000
 MO|    152              -0.434789             -11.831212               2.000000
 MO|    153              -0.434463             -11.822330               2.000000
 MO|    154              -0.430130             -11.704444               2.000000
 MO|    155              -0.423733             -11.530372               2.000000
 MO|    156              -0.417674             -11.365476               2.000000
 MO|    157              -0.412383             -11.221511               2.000000
 MO|    158              -0.410091             -11.159156               2.000000
 MO|    159              -0.403334             -10.975265               2.000000
 MO|    160              -0.400114             -10.887660               2.000000
 MO|    161              -0.393804             -10.715951               2.000000
 MO|    162              -0.391903             -10.664227               2.000000
 MO|    163              -0.390550             -10.627416               2.000000
 MO|    164              -0.387753             -10.551282               2.000000
 MO|    165              -0.372811             -10.144700               2.000000
 MO|    166              -0.364666              -9.923059               2.000000
 MO|    167              -0.357789              -9.735940               2.000000
 MO|    168              -0.344947              -9.386482               2.000000
 MO|    169              -0.331654              -9.024773               2.000000
 MO|    170              -0.330716              -8.999248               2.000000
 MO|    171              -0.328333              -8.934397               2.000000
 MO|    172              -0.328161              -8.929709               2.000000
 MO|    173              -0.326641              -8.888359               2.000000
 MO|    174              -0.318878              -8.677106               2.000000
 MO|    175              -0.305916              -8.324399               2.000000
 MO|    176              -0.305156              -8.303714               2.000000
 MO|    177              -0.297778              -8.102954               2.000000
 MO|    178              -0.275769              -7.504069               2.000000
 MO|    179              -0.272925              -7.426679               2.000000
 MO|    180              -0.255657              -6.956785               2.000000
 MO|    181              -0.185753              -5.054585               0.000000
 MO|    182              -0.171757              -4.673737               0.000000
 MO|    183              -0.170038              -4.626969               0.000000
 MO|    184              -0.150987              -4.108566               0.000000
 MO|    185              -0.144821              -3.940774               0.000000
 MO|    186              -0.141628              -3.853888               0.000000
 MO|    187              -0.140057              -3.811132               0.000000
 MO|    188              -0.133415              -3.630417               0.000000
 MO|    189              -0.124393              -3.384892               0.000000
 MO|    190              -0.118751              -3.231387               0.000000
 MO|    191              -0.115667              -3.147468               0.000000
 MO|    192              -0.107801              -2.933411               0.000000
 MO|    193              -0.101046              -2.749594               0.000000
 MO|    194              -0.085427              -2.324594               0.000000
 MO|    195              -0.070663              -1.922833               0.000000
 MO|    196              -0.059174              -1.610216               0.000000
 MO|    197              -0.049960              -1.359469               0.000000
 MO|    198              -0.046707              -1.270968               0.000000
 MO|    199              -0.045658              -1.242405               0.000000
 MO|    200              -0.040669              -1.106655               0.000000
 MO|    201              -0.040228              -1.094653               0.000000
 MO|    202              -0.039447              -1.073398               0.000000
 MO|    203              -0.038990              -1.060975               0.000000
 MO|    204              -0.032075              -0.872816               0.000000
 MO|    205              -0.027872              -0.758438               0.000000
 MO|    206              -0.021697              -0.590395               0.000000
 MO|    207              -0.021380              -0.581782               0.000000
 MO|    208              -0.014308              -0.389332               0.000000
 MO|    209              -0.013946              -0.379482               0.000000
 MO|    210              -0.006771              -0.184237               0.000000
 MO|    211              -0.002925              -0.079584               0.000000
 MO|    212               0.002389               0.064996               0.000000
 MO|    213               0.004428               0.120488               0.000000
 MO|    214               0.014035               0.381909               0.000000
 MO|    215               0.019648               0.534645               0.000000
 MO|    216               0.021928               0.596686               0.000000
 MO|    217               0.023845               0.648852               0.000000
 MO|    218               0.024893               0.677385               0.000000
 MO|    219               0.026548               0.722416               0.000000
 MO|    220               0.038652               1.051763               0.000000
 MO|    221               0.041476               1.128611               0.000000
 MO|    222               0.041968               1.142016               0.000000
 MO|    223               0.046162               1.256124               0.000000
 MO|    224               0.046208               1.257387               0.000000
 MO|    225               0.046866               1.275294               0.000000
 MO|    226               0.051151               1.391883               0.000000
 MO|    227               0.054284               1.477141               0.000000
 MO|    228               0.055379               1.506943               0.000000
 MO|    229               0.060600               1.649023               0.000000
 MO|    230               0.062735               1.707105               0.000000
 MO|    231               0.063163               1.718743               0.000000
 MO|    232               0.064385               1.752004               0.000000
 MO|    233               0.065299               1.776872               0.000000
 MO|    234               0.069593               1.893722               0.000000
 MO|    235               0.071778               1.953191               0.000000
 MO|    236               0.073928               2.011670               0.000000
 MO|    237               0.075289               2.048730               0.000000
 MO|    238               0.076265               2.075282               0.000000
 MO|    239               0.077067               2.097102               0.000000
 MO|    240               0.078983               2.149224               0.000000
 MO|    241               0.079433               2.161480               0.000000
 MO|    242               0.080219               2.182876               0.000000
 MO|    243               0.083278               2.266105               0.000000
 MO|    244               0.083421               2.270001               0.000000
 MO|    245               0.085155               2.317196               0.000000
 MO|    246               0.085671               2.331240               0.000000
 MO|    247               0.087408               2.378503               0.000000
 MO|    248               0.089252               2.428672               0.000000
 MO|    249               0.090395               2.459783               0.000000
 MO|    250               0.094271               2.565246               0.000000
 MO|    251               0.096196               2.617636               0.000000
 MO|    252               0.097134               2.643161               0.000000
 MO|    253               0.097904               2.664112               0.000000
 MO|    254               0.098080               2.668891               0.000000
 MO|    255               0.099008               2.694137               0.000000
 MO|    256               0.100044               2.722326               0.000000
 MO|    257               0.104846               2.853011               0.000000
 MO|    258               0.105315               2.865773               0.000000
 MO|    259               0.111284               3.028185               0.000000
 MO|    260               0.112716               3.067157               0.000000
 MO|    261               0.113602               3.091281               0.000000
 MO|    262               0.115550               3.144287               0.000000
 MO|    263               0.115921               3.154367               0.000000
 MO|    264               0.118293               3.218913               0.000000
 MO|    265               0.118811               3.233016               0.000000
 MO|    266               0.122613               3.336479               0.000000
 MO|    267               0.123040               3.348097               0.000000
 MO|    268               0.123117               3.350184               0.000000
 MO|    269               0.125597               3.417664               0.000000
 MO|    270               0.127142               3.459711               0.000000
 MO|    271               0.133085               3.621439               0.000000
 MO|    272               0.133312               3.627612               0.000000
 MO|    273               0.134131               3.649885               0.000000
 MO|    274               0.134906               3.670969               0.000000
 MO|    275               0.139890               3.806601               0.000000
 MO|    276               0.140436               3.821458               0.000000
 MO|    277               0.141737               3.856851               0.000000
 MO|    278               0.142793               3.885603               0.000000
 MO|    279               0.147782               4.021347               0.000000
 MO|    280               0.148469               4.040042               0.000000
 MO| Sum:                                                             360.000000
 MO| E(Fermi):           -0.195850 a.u.         -5.329347 eV
 MO| Band gap:            0.069905 a.u.          1.902200 eV

     1 NoMix/Diag. 0.40E+00    0.3     0.58779953     -2137.6430637614 -2.14E+03
  Decoupling Energy:                                               0.0073067336

 MO| EIGENVALUES AND OCCUPATION NUMBERS AFTER SCF STEP 1
 MO|
 MO|  Index      Eigenvalue [a.u.]        Eigenvalue [eV]             Occupation
 MO|      1              -9.958068            -270.972821               2.000000
 MO|      2              -9.957878            -270.967642               2.000000
 MO|      3              -9.957785            -270.965103               2.000000
 MO|      4              -9.957784            -270.965095               2.000000
 MO|      5              -9.956659            -270.934474               2.000000
 MO|      6              -9.956584            -270.932442               2.000000
 MO|      7              -9.956490            -270.929859               2.000000
 MO|      8              -9.956438            -270.928470               2.000000
 MO|      9              -9.956373            -270.926699               2.000000
 MO|     10              -9.956351            -270.926098               2.000000
 MO|     11              -9.956334            -270.925615               2.000000
 MO|     12              -9.956280            -270.924149               2.000000
 MO|     13              -9.955183            -270.894307               2.000000
 MO|     14              -9.955166            -270.893843               2.000000
 MO|     15              -9.952471            -270.820521               2.000000
 MO|     16              -9.952467            -270.820395               2.000000
 MO|     17              -9.952386            -270.818189               2.000000
 MO|     18              -9.952384            -270.818141               2.000000
 MO|     19              -9.951268            -270.787765               2.000000
 MO|     20              -9.951268            -270.787763               2.000000
 MO|     21              -9.951265            -270.787690               2.000000
 MO|     22              -9.951265            -270.787686               2.000000
 MO|     23              -9.951074            -270.782491               2.000000
 MO|     24              -9.951061            -270.782148               2.000000
 MO|     25              -9.950920            -270.778300               2.000000
 MO|     26              -9.950912            -270.778097               2.000000
 MO|     27              -9.949732            -270.745979               2.000000
 MO|     28              -9.949731            -270.745953               2.000000
 MO|     29              -9.949724            -270.745758               2.000000
 MO|     30              -9.949723            -270.745726               2.000000
 MO|     31              -9.948577            -270.714555               2.000000
 MO|     32              -9.948577            -270.714546               2.000000
 MO|     33              -9.948566            -270.714240               2.000000
 MO|     34              -9.948565            -270.714214               2.000000
 MO|     35              -9.918990            -269.909454               2.000000
 MO|     36              -9.918990            -269.909438               2.000000
 MO|     37              -9.917153            -269.859448               2.000000
 MO|     38              -9.917149            -269.859361               2.000000
 MO|     39              -9.917105            -269.858140               2.000000
 MO|     40              -9.917101            -269.858044               2.000000
 MO|     41              -9.916827            -269.850576               2.000000
 MO|     42              -9.916814            -269.850234               2.000000
 MO|     43              -9.916765            -269.848888               2.000000
 MO|     44              -9.916758            -269.848707               2.000000
 MO|     45              -9.908943            -269.636059               2.000000
 MO|     46              -9.908943            -269.636051               2.000000
 MO|     47              -9.908942            -269.636034               2.000000
 MO|     48              -9.908942            -269.636023               2.000000
 MO|     49              -9.908324            -269.619212               2.000000
 MO|     50              -9.908324            -269.619211               2.000000
 MO|     51              -9.908316            -269.618987               2.000000
 MO|     52              -9.908316            -269.618984               2.000000
 MO|     53              -9.907626            -269.600218               2.000000
 MO|     54              -9.907626            -269.600210               2.000000
 MO|     55              -9.907625            -269.600194               2.000000
 MO|     56              -9.907625            -269.600177               2.000000
 MO|     57              -0.959968             -26.122066               2.000000
 MO|     58              -0.949849             -25.846698               2.000000
 MO|     59              -0.935273             -25.450085               2.000000
 MO|     60              -0.924925             -25.168492               2.000000
 MO|     61              -0.917451             -24.965119               2.000000
 MO|     62              -0.914044             -24.872395               2.000000
 MO|     63              -0.898217             -24.441715               2.000000
 MO|     64              -0.890452             -24.230442               2.000000
 MO|     65              -0.882943             -24.026114               2.000000
 MO|     66              -0.872284             -23.736058               2.000000
 MO|     67              -0.863617             -23.500224               2.000000
 MO|     68              -0.861585             -23.444929               2.000000
 MO|     69              -0.849420             -23.113897               2.000000
 MO|     70              -0.849149             -23.106524               2.000000
 MO|     71              -0.834603             -22.710699               2.000000
 MO|     72              -0.828312             -22.539511               2.000000
 MO|     73              -0.820102             -22.316111               2.000000
 MO|     74              -0.808595             -22.002995               2.000000
 MO|     75              -0.799803             -21.763740               2.000000
 MO|     76              -0.798253             -21.721574               2.000000
 MO|     77              -0.795606             -21.649548               2.000000
 MO|     78              -0.788899             -21.467025               2.000000
 MO|     79              -0.784402             -21.344671               2.000000
 MO|     80              -0.782925             -21.304469               2.000000
 MO|     81              -0.774753             -21.082111               2.000000
 MO|     82              -0.755628             -20.561683               2.000000
 MO|     83              -0.753952             -20.516079               2.000000
 MO|     84              -0.728621             -19.826788               2.000000
 MO|     85              -0.724225             -19.707174               2.000000
 MO|     86              -0.715158             -19.460447               2.000000
 MO|     87              -0.710769             -19.341000               2.000000
 MO|     88              -0.700257             -19.054973               2.000000
 MO|     89              -0.696604             -18.955560               2.000000
 MO|     90              -0.694959             -18.910794               2.000000
 MO|     91              -0.688941             -18.747032               2.000000
 MO|     92              -0.688935             -18.746865               2.000000
 MO|     93              -0.679126             -18.479963               2.000000
 MO|     94              -0.659801             -17.954107               2.000000
 MO|     95              -0.658497             -17.918628               2.000000
 MO|     96              -0.638287             -17.368674               2.000000
 MO|     97              -0.636358             -17.316181               2.000000
 MO|     98              -0.634082             -17.254255               2.000000
 MO|     99              -0.629288             -17.123790               2.000000
 MO|    100              -0.615580             -16.750774               2.000000
 MO|    101              -0.612370             -16.663443               2.000000
 MO|    102              -0.609738             -16.591826               2.000000
 MO|    103              -0.606089             -16.492513               2.000000
 MO|    104              -0.591595             -16.098121               2.000000
 MO|    105              -0.587335             -15.982192               2.000000
 MO|    106              -0.584697             -15.910420               2.000000
 MO|    107              -0.574633             -15.636548               2.000000
 MO|    108              -0.566881             -15.425619               2.000000
 MO|    109              -0.564919             -15.372234               2.000000
 MO|    110              -0.553121             -15.051179               2.000000
 MO|    111              -0.548624             -14.928809               2.000000
 MO|    112              -0.547740             -14.904771               2.000000
 MO|    113              -0.540921             -14.719213               2.000000
 MO|    114              -0.538391             -14.650351               2.000000
 MO|    115              -0.531854             -14.472477               2.000000
 MO|    116              -0.525438             -14.297899               2.000000
 MO|    117              -0.525346             -14.295394               2.000000
 MO|    118              -0.522441             -14.216331               2.000000
 MO|    119              -0.516923             -14.066203               2.000000
 MO|    120              -0.513740             -13.979566               2.000000
 MO|    121              -0.509132             -13.854199               2.000000
 MO|    122              -0.504231             -13.720812               2.000000
 MO|    123              -0.502655             -13.677928               2.000000
 MO|    124              -0.502414             -13.671372               2.000000
 MO|    125              -0.502313             -13.668638               2.000000
 MO|    126              -0.495245             -13.476293               2.000000
 MO|    127              -0.491038             -13.361821               2.000000
 MO|    128              -0.490915             -13.358467               2.000000
 MO|    129              -0.489184             -13.311373               2.000000
 MO|    130              -0.487033             -13.252844               2.000000
 MO|    131              -0.484077             -13.172395               2.000000
 MO|    132              -0.482789             -13.137348               2.000000
 MO|    133              -0.482642             -13.133348               2.000000
 MO|    134              -0.479512             -13.048192               2.000000
 MO|    135              -0.472176             -12.848557               2.000000
 MO|    136              -0.470719             -12.808911               2.000000
 MO|    137              -0.469527             -12.776488               2.000000
 MO|    138              -0.462811             -12.593732               2.000000
 MO|    139              -0.458174             -12.467544               2.000000
 MO|    140              -0.456788             -12.429845               2.000000
 MO|    141              -0.456428             -12.420036               2.000000
 MO|    142              -0.453952             -12.352651               2.000000
 MO|    143              -0.450985             -12.271936               2.000000
 MO|    144              -0.445966             -12.135351               2.000000
 MO|    145              -0.444333             -12.090914               2.000000
 MO|    146              -0.436132             -11.867750               2.000000
 MO|    147              -0.430441             -11.712891               2.000000
 MO|    148              -0.430017             -11.701363               2.000000
 MO|    149              -0.426255             -11.598979               2.000000
 MO|    150              -0.423734             -11.530382               2.000000
 MO|    151              -0.420243             -11.435392               2.000000
 MO|    152              -0.418814             -11.396516               2.000000
 MO|    153              -0.417228             -11.353355               2.000000
 MO|    154              -0.414522             -11.279710               2.000000
 MO|    155              -0.411571             -11.199403               2.000000
 MO|    156              -0.405490             -11.033952               2.000000
 MO|    157              -0.402034             -10.939909               2.000000
 MO|    158              -0.398119             -10.833382               2.000000
 MO|    159              -0.395652             -10.766243               2.000000
 MO|    160              -0.386884             -10.527650               2.000000
 MO|    161              -0.385400             -10.487276               2.000000
 MO|    162              -0.384529             -10.463562               2.000000
 MO|    163              -0.383318             -10.430624               2.000000
 MO|    164              -0.373101             -10.152595               2.000000
 MO|    165              -0.371194             -10.100691               2.000000
 MO|    166              -0.363946              -9.903473               2.000000
 MO|    167              -0.356816              -9.709459               2.000000
 MO|    168              -0.338296              -9.205504               2.000000
 MO|    169              -0.333165              -9.065871               2.000000
 MO|    170              -0.328227              -8.931513               2.000000
 MO|    171              -0.327723              -8.917792               2.000000
 MO|    172              -0.323019              -8.789805               2.000000
 MO|    173              -0.316617              -8.615598               2.000000
 MO|    174              -0.315850              -8.594709               2.000000
 MO|    175              -0.304983              -8.299003               2.000000
 MO|    176              -0.303533              -8.259565               2.000000
 MO|    177              -0.287714              -7.829100               2.000000
 MO|    178              -0.275060              -7.484760               2.000000
 MO|    179              -0.265202              -7.216526               2.000000
 MO|    180              -0.254275              -6.919180               2.000000
 MO|    181              -0.185551              -5.049095               0.000000
 MO|    182              -0.171631              -4.670312               0.000000
 MO|    183              -0.167528              -4.558678               0.000000
 MO|    184              -0.146303              -3.981097               0.000000
 MO|    185              -0.145769              -3.966583               0.000000
 MO|    186              -0.138722              -3.774806               0.000000
 MO|    187              -0.137444              -3.740029               0.000000
 MO|    188              -0.126437              -3.440530               0.000000
 MO|    189              -0.118344              -3.220309               0.000000
 MO|    190              -0.116234              -3.162880               0.000000
 MO|    191              -0.109949              -2.991858               0.000000
 MO|    192              -0.107255              -2.918555               0.000000
 MO|    193              -0.095226              -2.591224               0.000000
 MO|    194              -0.079730              -2.169559               0.000000
 MO|    195              -0.070478              -1.917791               0.000000
 MO|    196              -0.056470              -1.536619               0.000000
 MO|    197              -0.055047              -1.497915               0.000000
 MO|    198              -0.053462              -1.454783               0.000000
 MO|    199              -0.051320              -1.396486               0.000000
 MO|    200              -0.047107              -1.281834               0.000000
 MO|    201              -0.044014              -1.197683               0.000000
 MO|    202              -0.040883              -1.112478               0.000000
 MO|    203              -0.039962              -1.087411               0.000000
 MO|    204              -0.035000              -0.952399               0.000000
 MO|    205              -0.032605              -0.887227               0.000000
 MO|    206              -0.027870              -0.758371               0.000000
 MO|    207              -0.020340              -0.553470               0.000000
 MO|    208              -0.016721              -0.454998               0.000000
 MO|    209              -0.012473              -0.339407               0.000000
 MO|    210              -0.009667              -0.263054               0.000000
 MO|    211              -0.009199              -0.250331               0.000000
 MO|    212              -0.005446              -0.148192               0.000000
 MO|    213              -0.001776              -0.048335               0.000000
 MO|    214               0.007935               0.215911               0.000000
 MO|    215               0.009883               0.268920               0.000000
 MO|    216               0.011676               0.317718               0.000000
 MO|    217               0.015098               0.410835               0.000000
 MO|    218               0.015323               0.416967               0.000000
 MO|    219               0.022754               0.619175               0.000000
 MO|    220               0.022904               0.623237               0.000000
 MO|    221               0.024018               0.653573               0.000000
 MO|    222               0.026694               0.726369               0.000000
 MO|    223               0.035448               0.964577               0.000000
 MO|    224               0.036997               1.006733               0.000000
 MO|    225               0.038715               1.053478               0.000000
 MO|    226               0.038736               1.054058               0.000000
 MO|    227               0.039906               1.085899               0.000000
 MO|    228               0.040546               1.103310               0.000000
 MO|    229               0.043483               1.183223               0.000000
 MO|    230               0.047084               1.281232               0.000000
 MO|    231               0.050530               1.374981               0.000000
 MO|    232               0.053501               1.455841               0.000000
 MO|    233               0.057384               1.561485               0.000000
 MO|    234               0.058591               1.594331               0.000000
 MO|    235               0.059430               1.617175               0.000000
 MO|    236               0.061849               1.683009               0.000000
 MO|    237               0.062383               1.697537               0.000000
 MO|    238               0.066065               1.797712               0.000000
 MO|    239               0.067568               1.838607               0.000000
 MO|    240               0.072106               1.962090               0.000000
 MO|    241               0.072292               1.967159               0.000000
 MO|    242               0.073193               1.991693               0.000000
 MO|    243               0.075919               2.065854               0.000000
 MO|    244               0.077707               2.114504               0.000000
 MO|    245               0.078620               2.139361               0.000000
 MO|    246               0.080412               2.188132               0.000000
 MO|    247               0.082488               2.244617               0.000000
 MO|    248               0.083040               2.259630               0.000000
 MO|    249               0.085680               2.331475               0.000000
 MO|    250               0.085784               2.334306               0.000000
 MO|    251               0.086192               2.345394               0.000000
 MO|    252               0.087512               2.381310               0.000000
 MO|    253               0.090899               2.473475               0.000000
 MO|    254               0.095432               2.596848               0.000000
 MO|    255               0.095913               2.609936               0.000000
 MO|    256               0.099163               2.698364               0.000000
 MO|    257               0.099840               2.716772               0.000000
 MO|    258               0.102537               2.790166               0.000000
 MO|    259               0.103489               2.816082               0.000000
 MO|    260               0.105614               2.873893               0.000000
 MO|    261               0.105896               2.881575               0.000000
 MO|    262               0.108021               2.939397               0.000000
 MO|    263               0.109401               2.976939               0.000000
 MO|    264               0.110727               3.013027               0.000000
 MO|    265               0.112500               3.061294               0.000000
 MO|    266               0.112619               3.064529               0.000000
 MO|    267               0.113066               3.076689               0.000000
 MO|    268               0.114837               3.124884               0.000000
 MO|    269               0.118510               3.224823               0.000000
 MO|    270               0.121869               3.316230               0.000000
 MO|    271               0.123378               3.357290               0.000000
 MO|    272               0.124390               3.384811               0.000000
 MO|    273               0.127121               3.459129               0.000000
 MO|    274               0.129003               3.510354               0.000000
 MO|    275               0.130552               3.552493               0.000000
 MO|    276               0.132791               3.613419               0.000000
 MO|    277               0.134108               3.649262               0.000000
 MO|    278               0.134833               3.668991               0.000000
 MO|    279               0.147245               4.006750               0.000000
 MO|    280               0.148388               4.037850               0.000000
 MO| Sum:                                                             360.000000
 MO| E(Fermi):           -0.195648 a.u.         -5.323857 eV
 MO| Band gap:            0.068724 a.u.          1.870085 eV

     2 Broy./Diag. 0.40E+00    0.4     0.19955737     -2093.8861815401  4.38E+01
  Decoupling Energy:                                               0.0014549518

 MO| EIGENVALUES AND OCCUPATION NUMBERS AFTER SCF STEP 2
 MO|
 MO|  Index      Eigenvalue [a.u.]        Eigenvalue [eV]             Occupation
 MO|      1              -9.846015            -267.923686               2.000000
 MO|      2              -9.845805            -267.917973               2.000000
 MO|      3              -9.845409            -267.907212               2.000000
 MO|      4              -9.845382            -267.906477               2.000000
 MO|      5              -9.845271            -267.903437               2.000000
 MO|      6              -9.845261            -267.903189               2.000000
 MO|      7              -9.843891            -267.865901               2.000000
 MO|      8              -9.843885            -267.865723               2.000000
 MO|      9              -9.843880            -267.865593               2.000000
 MO|     10              -9.843871            -267.865358               2.000000
 MO|     11              -9.843835            -267.864367               2.000000
 MO|     12              -9.843730            -267.861503               2.000000
 MO|     13              -9.843727            -267.861432               2.000000
 MO|     14              -9.843670            -267.859880               2.000000
 MO|     15              -9.841661            -267.805205               2.000000
 MO|     16              -9.841659            -267.805163               2.000000
 MO|     17              -9.841382            -267.797614               2.000000
 MO|     18              -9.841364            -267.797129               2.000000
 MO|     19              -9.841312            -267.795722               2.000000
 MO|     20              -9.841299            -267.795377               2.000000
 MO|     21              -9.841046            -267.788468               2.000000
 MO|     22              -9.841033            -267.788127               2.000000
 MO|     23              -9.836857            -267.674493               2.000000
 MO|     24              -9.836856            -267.674468               2.000000
 MO|     25              -9.836854            -267.674410               2.000000
 MO|     26              -9.836853            -267.674379               2.000000
 MO|     27              -9.835431            -267.635687               2.000000
 MO|     28              -9.835426            -267.635563               2.000000
 MO|     29              -9.835347            -267.633394               2.000000
 MO|     30              -9.835345            -267.633350               2.000000
 MO|     31              -9.832884            -267.566383               2.000000
 MO|     32              -9.832884            -267.566377               2.000000
 MO|     33              -9.832880            -267.566267               2.000000
 MO|     34              -9.832880            -267.566263               2.000000
 MO|     35              -9.830298            -267.496016               2.000000
 MO|     36              -9.830294            -267.495917               2.000000
 MO|     37              -9.830259            -267.494955               2.000000
 MO|     38              -9.830255            -267.494852               2.000000
 MO|     39              -9.829988            -267.487563               2.000000
 MO|     40              -9.829975            -267.487221               2.000000
 MO|     41              -9.829917            -267.485634               2.000000
 MO|     42              -9.829910            -267.485463               2.000000
 MO|     43              -9.829783            -267.482000               2.000000
 MO|     44              -9.829783            -267.481996               2.000000
 MO|     45              -9.829775            -267.481785               2.000000
 MO|     46              -9.829775            -267.481776               2.000000
 MO|     47              -9.823803            -267.319288               2.000000
 MO|     48              -9.823803            -267.319268               2.000000
 MO|     49              -9.823801            -267.319227               2.000000
 MO|     50              -9.823800            -267.319201               2.000000
 MO|     51              -9.820779            -267.236984               2.000000
 MO|     52              -9.820779            -267.236976               2.000000
 MO|     53              -9.820779            -267.236974               2.000000
 MO|     54              -9.820778            -267.236971               2.000000
 MO|     55              -9.809317            -266.925103               2.000000
 MO|     56              -9.809317            -266.925088               2.000000
 MO|     57              -0.893505             -24.313498               2.000000
 MO|     58              -0.882471             -24.013257               2.000000
 MO|     59              -0.868126             -23.622913               2.000000
 MO|     60              -0.861846             -23.452011               2.000000
 MO|     61              -0.850837             -23.152456               2.000000
 MO|     62              -0.850345             -23.139051               2.000000
 MO|     63              -0.834982             -22.721025               2.000000
 MO|     64              -0.823025             -22.395650               2.000000
 MO|     65              -0.820778             -22.334508               2.000000
 MO|     66              -0.809851             -22.037168               2.000000
 MO|     67              -0.799979             -21.768535               2.000000
 MO|     68              -0.794206             -21.611453               2.000000
 MO|     69              -0.786891             -21.412406               2.000000
 MO|     70              -0.786407             -21.399234               2.000000
 MO|     71              -0.773344             -21.043753               2.000000
 MO|     72              -0.759520             -20.667584               2.000000
 MO|     73              -0.757421             -20.610483               2.000000
 MO|     74              -0.745228             -20.278689               2.000000
 MO|     75              -0.736211             -20.033323               2.000000
 MO|     76              -0.733273             -19.953381               2.000000
 MO|     77              -0.726058             -19.757038               2.000000
 MO|     78              -0.724536             -19.715620               2.000000
 MO|     79              -0.719402             -19.575914               2.000000
 MO|     80              -0.718016             -19.538216               2.000000
 MO|     81              -0.710474             -19.332990               2.000000
 MO|     82              -0.690201             -18.781335               2.000000
 MO|     83              -0.689437             -18.760541               2.000000
 MO|     84              -0.661748             -18.007071               2.000000
 MO|     85              -0.660120             -17.962779               2.000000
 MO|     86              -0.649163             -17.664632               2.000000
 MO|     87              -0.645779             -17.572551               2.000000
 MO|     88              -0.634826             -17.274488               2.000000
 MO|     89              -0.630596             -17.159387               2.000000
 MO|     90              -0.629086             -17.118305               2.000000
 MO|     91              -0.622867             -16.949080               2.000000
 MO|     92              -0.622011             -16.925785               2.000000
 MO|     93              -0.610202             -16.604442               2.000000
 MO|     94              -0.594617             -16.180352               2.000000
 MO|     95              -0.593596             -16.152576               2.000000
 MO|     96              -0.572329             -15.573859               2.000000
 MO|     97              -0.571982             -15.564424               2.000000
 MO|     98              -0.564026             -15.347929               2.000000
 MO|     99              -0.563981             -15.346708               2.000000
 MO|    100              -0.549863             -14.962531               2.000000
 MO|    101              -0.546752             -14.877876               2.000000
 MO|    102              -0.544651             -14.820713               2.000000
 MO|    103              -0.540290             -14.702034               2.000000
 MO|    104              -0.526479             -14.326235               2.000000
 MO|    105              -0.522651             -14.222058               2.000000
 MO|    106              -0.517227             -14.074475               2.000000
 MO|    107              -0.507422             -13.807649               2.000000
 MO|    108              -0.502808             -13.682100               2.000000
 MO|    109              -0.498729             -13.571100               2.000000
 MO|    110              -0.488688             -13.297875               2.000000
 MO|    111              -0.484378             -13.180602               2.000000
 MO|    112              -0.482406             -13.126925               2.000000
 MO|    113              -0.476011             -12.952911               2.000000
 MO|    114              -0.474882             -12.922193               2.000000
 MO|    115              -0.469414             -12.773394               2.000000
 MO|    116              -0.458145             -12.466751               2.000000
 MO|    117              -0.457447             -12.447765               2.000000
 MO|    118              -0.455346             -12.390603               2.000000
 MO|    119              -0.453290             -12.334639               2.000000
 MO|    120              -0.449022             -12.218505               2.000000
 MO|    121              -0.447392             -12.174145               2.000000
 MO|    122              -0.445935             -12.134514               2.000000
 MO|    123              -0.442372             -12.037551               2.000000
 MO|    124              -0.441214             -12.006052               2.000000
 MO|    125              -0.436450             -11.876420               2.000000
 MO|    126              -0.432759             -11.775963               2.000000
 MO|    127              -0.428216             -11.652356               2.000000
 MO|    128              -0.422244             -11.489853               2.000000
 MO|    129              -0.422096             -11.485808               2.000000
 MO|    130              -0.420495             -11.442240               2.000000
 MO|    131              -0.417425             -11.358713               2.000000
 MO|    132              -0.415924             -11.317861               2.000000
 MO|    133              -0.415671             -11.310994               2.000000
 MO|    134              -0.415385             -11.303196               2.000000
 MO|    135              -0.407681             -11.093576               2.000000
 MO|    136              -0.407372             -11.085153               2.000000
 MO|    137              -0.402020             -10.939531               2.000000
 MO|    138              -0.401870             -10.935435               2.000000
 MO|    139              -0.398624             -10.847102               2.000000
 MO|    140              -0.394667             -10.739429               2.000000
 MO|    141              -0.392788             -10.688304               2.000000
 MO|    142              -0.391443             -10.651715               2.000000
 MO|    143              -0.391003             -10.639722               2.000000
 MO|    144              -0.389129             -10.588750               2.000000
 MO|    145              -0.386655             -10.521410               2.000000
 MO|    146              -0.377074             -10.260692               2.000000
 MO|    147              -0.374825             -10.199497               2.000000
 MO|    148              -0.364949              -9.930757               2.000000
 MO|    149              -0.364937              -9.930435               2.000000
 MO|    150              -0.363169              -9.882319               2.000000
 MO|    151              -0.357280              -9.722082               2.000000
 MO|    152              -0.356131              -9.690805               2.000000
 MO|    153              -0.353713              -9.625011               2.000000
 MO|    154              -0.352882              -9.602406               2.000000
 MO|    155              -0.349375              -9.506968               2.000000
 MO|    156              -0.349343              -9.506104               2.000000
 MO|    157              -0.347678              -9.460795               2.000000
 MO|    158              -0.337658              -9.188128               2.000000
 MO|    159              -0.335420              -9.127243               2.000000
 MO|    160              -0.333791              -9.082909               2.000000
 MO|    161              -0.324400              -8.827371               2.000000
 MO|    162              -0.322863              -8.785537               2.000000
 MO|    163              -0.313378              -8.527461               2.000000
 MO|    164              -0.311191              -8.467943               2.000000
 MO|    165              -0.310428              -8.447187               2.000000
 MO|    166              -0.309636              -8.425626               2.000000
 MO|    167              -0.302282              -8.225523               2.000000
 MO|    168              -0.289755              -7.884644               2.000000
 MO|    169              -0.279758              -7.612615               2.000000
 MO|    170              -0.277748              -7.557917               2.000000
 MO|    171              -0.277717              -7.557071               2.000000
 MO|    172              -0.272056              -7.403007               2.000000
 MO|    173              -0.265760              -7.231689               2.000000
 MO|    174              -0.264720              -7.203406               2.000000
 MO|    175              -0.253725              -6.904214               2.000000
 MO|    176              -0.253359              -6.894261               2.000000
 MO|    177              -0.238065              -6.478084               2.000000
 MO|    178              -0.223818              -6.090403               2.000000
 MO|    179              -0.213796              -5.817698               2.000000
 MO|    180              -0.201765              -5.490302               2.000000
 MO|    181              -0.132647              -3.609510               0.000000
 MO|    182              -0.120551              -3.280367               0.000000
 MO|    183              -0.117258              -3.190746               0.000000
 MO|    184              -0.098011              -2.667023               0.000000
 MO|    185              -0.094700              -2.576920               0.000000
 MO|    186              -0.089696              -2.440766               0.000000
 MO|    187              -0.085850              -2.336103               0.000000
 MO|    188              -0.077395              -2.106030               0.000000
 MO|    189              -0.067387              -1.833707               0.000000
 MO|    190              -0.064788              -1.762979               0.000000
 MO|    191              -0.057715              -1.570505               0.000000
 MO|    192              -0.057598              -1.567308               0.000000
 MO|    193              -0.045649              -1.242175               0.000000
 MO|    194              -0.033815              -0.920140               0.000000
 MO|    195              -0.033400              -0.908866               0.000000
 MO|    196              -0.030423              -0.827853               0.000000
 MO|    197              -0.030012              -0.816657               0.000000
 MO|    198              -0.026300              -0.715671               0.000000
 MO|    199              -0.021493              -0.584857               0.000000
 MO|    200              -0.017839              -0.485431               0.000000
 MO|    201              -0.017655              -0.480411               0.000000
 MO|    202              -0.011389              -0.309920               0.000000
 MO|    203              -0.005595              -0.152252               0.000000
 MO|    204              -0.005155              -0.140274               0.000000
 MO|    205              -0.000436              -0.011878               0.000000
 MO|    206               0.002024               0.055082               0.000000
 MO|    207               0.008584               0.233581               0.000000
 MO|    208               0.010962               0.298281               0.000000
 MO|    209               0.014874               0.404733               0.000000
 MO|    210               0.019384               0.527456               0.000000
 MO|    211               0.026104               0.710330               0.000000
 MO|    212               0.026171               0.712142               0.000000
 MO|    213               0.027666               0.752835               0.000000
 MO|    214               0.028338               0.771128               0.000000
 MO|    215               0.034043               0.926350               0.000000
 MO|    216               0.034212               0.930968               0.000000
 MO|    217               0.037278               1.014377               0.000000
 MO|    218               0.039708               1.080511               0.000000
 MO|    219               0.040139               1.092248               0.000000
 MO|    220               0.043284               1.177810               0.000000
 MO|    221               0.045918               1.249505               0.000000
 MO|    222               0.046603               1.268121               0.000000
 MO|    223               0.055586               1.512570               0.000000
 MO|    224               0.056251               1.530673               0.000000
 MO|    225               0.056321               1.532575               0.000000
 MO|    226               0.061562               1.675196               0.000000
 MO|    227               0.061644               1.677416               0.000000
 MO|    228               0.062111               1.690124               0.000000
 MO|    229               0.066335               1.805062               0.000000
 MO|    230               0.070519               1.918926               0.000000
 MO|    231               0.074486               2.026875               0.000000
 MO|    232               0.074926               2.038846               0.000000
 MO|    233               0.078388               2.133036               0.000000
 MO|    234               0.080963               2.203128               0.000000
 MO|    235               0.081360               2.213923               0.000000
 MO|    236               0.082842               2.254241               0.000000
 MO|    237               0.084667               2.303919               0.000000
 MO|    238               0.094752               2.578332               0.000000
 MO|    239               0.096338               2.621491               0.000000
 MO|    240               0.097383               2.649931               0.000000
 MO|    241               0.099094               2.696488               0.000000
 MO|    242               0.104834               2.852667               0.000000
 MO|    243               0.105580               2.872983               0.000000
 MO|    244               0.107225               2.917749               0.000000
 MO|    245               0.115394               3.140019               0.000000
 MO|    246               0.115567               3.144742               0.000000
 MO|    247               0.117655               3.201563               0.000000
 MO|    248               0.118102               3.213710               0.000000
 MO|    249               0.119134               3.241789               0.000000
 MO|    250               0.121705               3.311759               0.000000
 MO|    251               0.125915               3.426312               0.000000
 MO|    252               0.126127               3.432097               0.000000
 MO|    253               0.129599               3.526565               0.000000
 MO|    254               0.129873               3.534032               0.000000
 MO|    255               0.131671               3.582942               0.000000
 MO|    256               0.134322               3.655091               0.000000
 MO|    257               0.136851               3.723905               0.000000
 MO|    258               0.139170               3.787008               0.000000
 MO|    259               0.140073               3.811587               0.000000
 MO|    260               0.140086               3.811928               0.000000
 MO|    261               0.141889               3.861009               0.000000
 MO|    262               0.145742               3.965844               0.000000
 MO|    263               0.147061               4.001734               0.000000
 MO|    264               0.151579               4.124680               0.000000
 MO|    265               0.152129               4.139641               0.000000
 MO|    266               0.157075               4.274217               0.000000
 MO|    267               0.157595               4.288390               0.000000
 MO|    268               0.158846               4.322416               0.000000
 MO|    269               0.159453               4.338929               0.000000
 MO|    270               0.160619               4.370652               0.000000
 MO|    271               0.164083               4.464932               0.000000
 MO|    272               0.164147               4.466677               0.000000
 MO|    273               0.167670               4.562537               0.000000
 MO|    274               0.169155               4.602953               0.000000
 MO|    275               0.172422               4.691846               0.000000
 MO|    276               0.174259               4.741824               0.000000
 MO|    277               0.176427               4.800810               0.000000
 MO|    278               0.176731               4.809083               0.000000
 MO|    279               0.180759               4.918689               0.000000
 MO|    280               0.180829               4.920598               0.000000
 MO| Sum:                                                             360.000000
 MO| E(Fermi):           -0.142744 a.u.         -3.884272 eV
 MO| Band gap:            0.069118 a.u.          1.880792 eV

     3 Broy./Diag. 0.40E+00    0.4     0.12223350     -2113.3922154297 -1.95E+01
  Decoupling Energy:                                               0.0009013046

 MO| EIGENVALUES AND OCCUPATION NUMBERS AFTER SCF STEP 3
 MO|
 MO|  Index      Eigenvalue [a.u.]        Eigenvalue [eV]             Occupation
 MO|      1              -9.835172            -267.628649               2.000000
 MO|      2              -9.834997            -267.623890               2.000000
 MO|      3              -9.834720            -267.616348               2.000000
 MO|      4              -9.834720            -267.616341               2.000000
 MO|      5              -9.834301            -267.604929               2.000000
 MO|      6              -9.834181            -267.601662               2.000000
 MO|      7              -9.834166            -267.601267               2.000000
 MO|      8              -9.834116            -267.599894               2.000000
 MO|      9              -9.833498            -267.583088               2.000000
 MO|     10              -9.833478            -267.582546               2.000000
 MO|     11              -9.833422            -267.581023               2.000000
 MO|     12              -9.833405            -267.580563               2.000000
 MO|     13              -9.833355            -267.579201               2.000000
 MO|     14              -9.833332            -267.578562               2.000000
 MO|     15              -9.833285            -267.577286               2.000000
 MO|     16              -9.833279            -267.577130               2.000000
 MO|     17              -9.832561            -267.557594               2.000000
 MO|     18              -9.832561            -267.557579               2.000000
 MO|     19              -9.832544            -267.557124               2.000000
 MO|     20              -9.832544            -267.557117               2.000000
 MO|     21              -9.831174            -267.519859               2.000000
 MO|     22              -9.831154            -267.519311               2.000000
 MO|     23              -9.830985            -267.514697               2.000000
 MO|     24              -9.830973            -267.514381               2.000000
 MO|     25              -9.830964            -267.514134               2.000000
 MO|     26              -9.830954            -267.513865               2.000000
 MO|     27              -9.830437            -267.499802               2.000000
 MO|     28              -9.830434            -267.499726               2.000000
 MO|     29              -9.830415            -267.499201               2.000000
 MO|     30              -9.830413            -267.499136               2.000000
 MO|     31              -9.830230            -267.494155               2.000000
 MO|     32              -9.830227            -267.494091               2.000000
 MO|     33              -9.830172            -267.492575               2.000000
 MO|     34              -9.830171            -267.492562               2.000000
 MO|     35              -9.820037            -267.216808               2.000000
 MO|     36              -9.820036            -267.216760               2.000000
 MO|     37              -9.820015            -267.216202               2.000000
 MO|     38              -9.820011            -267.216081               2.000000
 MO|     39              -9.819606            -267.205063               2.000000
 MO|     40              -9.819595            -267.204768               2.000000
 MO|     41              -9.819521            -267.202742               2.000000
 MO|     42              -9.819515            -267.202586               2.000000
 MO|     43              -9.815690            -267.098502               2.000000
 MO|     44              -9.815689            -267.098486               2.000000
 MO|     45              -9.815163            -267.084176               2.000000
 MO|     46              -9.815163            -267.084166               2.000000
 MO|     47              -9.815156            -267.083980               2.000000
 MO|     48              -9.815156            -267.083965               2.000000
 MO|     49              -9.814892            -267.076795               2.000000
 MO|     50              -9.814892            -267.076784               2.000000
 MO|     51              -9.814885            -267.076597               2.000000
 MO|     52              -9.814884            -267.076580               2.000000
 MO|     53              -9.811557            -266.986033               2.000000
 MO|     54              -9.811556            -266.986025               2.000000
 MO|     55              -9.811556            -266.986021               2.000000
 MO|     56              -9.811556            -266.986017               2.000000
 MO|     57              -0.884290             -24.062751               2.000000
 MO|     58              -0.874626             -23.799771               2.000000
 MO|     59              -0.860963             -23.427984               2.000000
 MO|     60              -0.851855             -23.180167               2.000000
 MO|     61              -0.843431             -22.950927               2.000000
 MO|     62              -0.841158             -22.889083               2.000000
 MO|     63              -0.826215             -22.482449               2.000000
 MO|     64              -0.815104             -22.180111               2.000000
 MO|     65              -0.811542             -22.083169               2.000000
 MO|     66              -0.799605             -21.758347               2.000000
 MO|     67              -0.790324             -21.505808               2.000000
 MO|     68              -0.787132             -21.418961               2.000000
 MO|     69              -0.778255             -21.177405               2.000000
 MO|     70              -0.776415             -21.127335               2.000000
 MO|     71              -0.763565             -20.777664               2.000000
 MO|     72              -0.751561             -20.451008               2.000000
 MO|     73              -0.747640             -20.344320               2.000000
 MO|     74              -0.734830             -19.995752               2.000000
 MO|     75              -0.726098             -19.758133               2.000000
 MO|     76              -0.724068             -19.702893               2.000000
 MO|     77              -0.717617             -19.527357               2.000000
 MO|     78              -0.716170             -19.487984               2.000000
 MO|     79              -0.709957             -19.318912               2.000000
 MO|     80              -0.708882             -19.289651               2.000000
 MO|     81              -0.700630             -19.065109               2.000000
 MO|     82              -0.680231             -18.510029               2.000000
 MO|     83              -0.679389             -18.487123               2.000000
 MO|     84              -0.652389             -17.752406               2.000000
 MO|     85              -0.650535             -17.701944               2.000000
 MO|     86              -0.639805             -17.409983               2.000000
 MO|     87              -0.635417             -17.290580               2.000000
 MO|     88              -0.624278             -16.987467               2.000000
 MO|     89              -0.620912             -16.895878               2.000000
 MO|     90              -0.618972             -16.843098               2.000000
 MO|     91              -0.613292             -16.688520               2.000000
 MO|     92              -0.612268             -16.660658               2.000000
 MO|     93              -0.601732             -16.373974               2.000000
 MO|     94              -0.585211             -15.924391               2.000000
 MO|     95              -0.583698             -15.883227               2.000000
 MO|     96              -0.562196             -15.298141               2.000000
 MO|     97              -0.561073             -15.267574               2.000000
 MO|     98              -0.555451             -15.114585               2.000000
 MO|     99              -0.553908             -15.072612               2.000000
 MO|    100              -0.539471             -14.679746               2.000000
 MO|    101              -0.536082             -14.587521               2.000000
 MO|    102              -0.534545             -14.545722               2.000000
 MO|    103              -0.530024             -14.422682               2.000000
 MO|    104              -0.517136             -14.071988               2.000000
 MO|    105              -0.511970             -13.931413               2.000000
 MO|    106              -0.508122             -13.826705               2.000000
 MO|    107              -0.497348             -13.533519               2.000000
 MO|    108              -0.492621             -13.404901               2.000000
 MO|    109              -0.487840             -13.274813               2.000000
 MO|    110              -0.477708             -12.999106               2.000000
 MO|    111              -0.473034             -12.871915               2.000000
 MO|    112              -0.472071             -12.845695               2.000000
 MO|    113              -0.466074             -12.682532               2.000000
 MO|    114              -0.463758             -12.619499               2.000000
 MO|    115              -0.458365             -12.472759               2.000000
 MO|    116              -0.447965             -12.189753               2.000000
 MO|    117              -0.447782             -12.184773               2.000000
 MO|    118              -0.445399             -12.119920               2.000000
 MO|    119              -0.443192             -12.059881               2.000000
 MO|    120              -0.443029             -12.055421               2.000000
 MO|    121              -0.440816             -11.995208               2.000000
 MO|    122              -0.437390             -11.901981               2.000000
 MO|    123              -0.431973             -11.754587               2.000000
 MO|    124              -0.430594             -11.717047               2.000000
 MO|    125              -0.429764             -11.694465               2.000000
 MO|    126              -0.423078             -11.512531               2.000000
 MO|    127              -0.417428             -11.358788               2.000000
 MO|    128              -0.412096             -11.213689               2.000000
 MO|    129              -0.411919             -11.208886               2.000000
 MO|    130              -0.410517             -11.170737               2.000000
 MO|    131              -0.410493             -11.170080               2.000000
 MO|    132              -0.405575             -11.036248               2.000000
 MO|    133              -0.405157             -11.024870               2.000000
 MO|    134              -0.404943             -11.019049               2.000000
 MO|    135              -0.399549             -10.872283               2.000000
 MO|    136              -0.398385             -10.840620               2.000000
 MO|    137              -0.392749             -10.687253               2.000000
 MO|    138              -0.391643             -10.657155               2.000000
 MO|    139              -0.387820             -10.553132               2.000000
 MO|    140              -0.387255             -10.537731               2.000000
 MO|    141              -0.384189             -10.454312               2.000000
 MO|    142              -0.381778             -10.388703               2.000000
 MO|    143              -0.380012             -10.340662               2.000000
 MO|    144              -0.379003             -10.313186               2.000000
 MO|    145              -0.375711             -10.223605               2.000000
 MO|    146              -0.369868             -10.064619               2.000000
 MO|    147              -0.363622              -9.894660               2.000000
 MO|    148              -0.356334              -9.696333               2.000000
 MO|    149              -0.354099              -9.635529               2.000000
 MO|    150              -0.353515              -9.619644               2.000000
 MO|    151              -0.349674              -9.515109               2.000000
 MO|    152              -0.345657              -9.405801               2.000000
 MO|    153              -0.343103              -9.336306               2.000000
 MO|    154              -0.342336              -9.315434               2.000000
 MO|    155              -0.341111              -9.282112               2.000000
 MO|    156              -0.339104              -9.227502               2.000000
 MO|    157              -0.335992              -9.142803               2.000000
 MO|    158              -0.329905              -8.977184               2.000000
 MO|    159              -0.327394              -8.908852               2.000000
 MO|    160              -0.323780              -8.810489               2.000000
 MO|    161              -0.315244              -8.578232               2.000000
 MO|    162              -0.314689              -8.563126               2.000000
 MO|    163              -0.304128              -8.275733               2.000000
 MO|    164              -0.303628              -8.262134               2.000000
 MO|    165              -0.301247              -8.197348               2.000000
 MO|    166              -0.300523              -8.177639               2.000000
 MO|    167              -0.291511              -7.932431               2.000000
 MO|    168              -0.281758              -7.667036               2.000000
 MO|    169              -0.272248              -7.408249               2.000000
 MO|    170              -0.269649              -7.337533               2.000000
 MO|    171              -0.269634              -7.337102               2.000000
 MO|    172              -0.264577              -7.199508               2.000000
 MO|    173              -0.259608              -7.064306               2.000000
 MO|    174              -0.258060              -7.022181               2.000000
 MO|    175              -0.245726              -6.686556               2.000000
 MO|    176              -0.245605              -6.683257               2.000000
 MO|    177              -0.229896              -6.255776               2.000000
 MO|    178              -0.215503              -5.864130               2.000000
 MO|    179              -0.206119              -5.608772               2.000000
 MO|    180              -0.194216              -5.284886               2.000000
 MO|    181              -0.124964              -3.400437               0.000000
 MO|    182              -0.112286              -3.055457               0.000000
 MO|    183              -0.110042              -2.994403               0.000000
 MO|    184              -0.090800              -2.470785               0.000000
 MO|    185              -0.087008              -2.367621               0.000000
 MO|    186              -0.082014              -2.231701               0.000000
 MO|    187              -0.078165              -2.126973               0.000000
 MO|    188              -0.070479              -1.917822               0.000000
 MO|    189              -0.059604              -1.621903               0.000000
 MO|    190              -0.058279              -1.585844               0.000000
 MO|    191              -0.050455              -1.372962               0.000000
 MO|    192              -0.050119              -1.363802               0.000000
 MO|    193              -0.037871              -1.030523               0.000000
 MO|    194              -0.027517              -0.748764               0.000000
 MO|    195              -0.025898              -0.704719               0.000000
 MO|    196              -0.024987              -0.679927               0.000000
 MO|    197              -0.024128              -0.656544               0.000000
 MO|    198              -0.021098              -0.574102               0.000000
 MO|    199              -0.015447              -0.420322               0.000000
 MO|    200              -0.012086              -0.328883               0.000000
 MO|    201              -0.010297              -0.280184               0.000000
 MO|    202              -0.005654              -0.153860               0.000000
 MO|    203               0.000070               0.001909               0.000000
 MO|    204               0.002783               0.075734               0.000000
 MO|    205               0.005211               0.141788               0.000000
 MO|    206               0.008182               0.222652               0.000000
 MO|    207               0.013889               0.377929               0.000000
 MO|    208               0.016817               0.457606               0.000000
 MO|    209               0.022107               0.601549               0.000000
 MO|    210               0.024501               0.666703               0.000000
 MO|    211               0.029951               0.814996               0.000000
 MO|    212               0.030960               0.842457               0.000000
 MO|    213               0.032751               0.891201               0.000000
 MO|    214               0.033133               0.901592               0.000000
 MO|    215               0.039212               1.067010               0.000000
 MO|    216               0.042026               1.143584               0.000000
 MO|    217               0.043210               1.175810               0.000000
 MO|    218               0.044432               1.209060               0.000000
 MO|    219               0.046450               1.263966               0.000000
 MO|    220               0.048954               1.332105               0.000000
 MO|    221               0.050415               1.371871               0.000000
 MO|    222               0.051783               1.409079               0.000000
 MO|    223               0.060604               1.649126               0.000000
 MO|    224               0.060855               1.655949               0.000000
 MO|    225               0.061354               1.669530               0.000000
 MO|    226               0.066301               1.804154               0.000000
 MO|    227               0.066749               1.816339               0.000000
 MO|    228               0.067663               1.841211               0.000000
 MO|    229               0.070874               1.928568               0.000000
 MO|    230               0.075379               2.051154               0.000000
 MO|    231               0.079427               2.161320               0.000000
 MO|    232               0.079602               2.166088               0.000000
 MO|    233               0.082978               2.257933               0.000000
 MO|    234               0.087374               2.377559               0.000000
 MO|    235               0.087763               2.388160               0.000000
 MO|    236               0.088332               2.403625               0.000000
 MO|    237               0.090262               2.456152               0.000000
 MO|    238               0.099386               2.704425               0.000000
 MO|    239               0.101162               2.752762               0.000000
 MO|    240               0.102312               2.784039               0.000000
 MO|    241               0.104438               2.841893               0.000000
 MO|    242               0.110172               2.997931               0.000000
 MO|    243               0.112881               3.071662               0.000000
 MO|    244               0.115461               3.141859               0.000000
 MO|    245               0.121893               3.316881               0.000000
 MO|    246               0.122237               3.326238               0.000000
 MO|    247               0.122860               3.343202               0.000000
 MO|    248               0.123399               3.357853               0.000000
 MO|    249               0.125662               3.419442               0.000000
 MO|    250               0.126244               3.435277               0.000000
 MO|    251               0.132184               3.596914               0.000000
 MO|    252               0.132496               3.605393               0.000000
 MO|    253               0.133451               3.631373               0.000000
 MO|    254               0.136640               3.718167               0.000000
 MO|    255               0.136903               3.725313               0.000000
 MO|    256               0.138474               3.768078               0.000000
 MO|    257               0.145407               3.956714               0.000000
 MO|    258               0.145743               3.965864               0.000000
 MO|    259               0.147321               4.008802               0.000000
 MO|    260               0.148710               4.046596               0.000000
 MO|    261               0.149848               4.077566               0.000000
 MO|    262               0.152354               4.145763               0.000000
 MO|    263               0.153886               4.187447               0.000000
 MO|    264               0.159658               4.344502               0.000000
 MO|    265               0.160232               4.360148               0.000000
 MO|    266               0.164431               4.474406               0.000000
 MO|    267               0.165037               4.490890               0.000000
 MO|    268               0.165876               4.513713               0.000000
 MO|    269               0.165946               4.515608               0.000000
 MO|    270               0.166280               4.524718               0.000000
 MO|    271               0.170294               4.633945               0.000000
 MO|    272               0.172211               4.686094               0.000000
 MO|    273               0.175587               4.777975               0.000000
 MO|    274               0.175644               4.779511               0.000000
 MO|    275               0.178982               4.870360               0.000000
 MO|    276               0.181328               4.934181               0.000000
 MO|    277               0.182288               4.960310               0.000000
 MO|    278               0.184773               5.027928               0.000000
 MO|    279               0.187141               5.092360               0.000000
 MO|    280               0.188481               5.128822               0.000000
 MO| Sum:                                                             360.000000
 MO| E(Fermi):           -0.135061 a.u.         -3.675199 eV
 MO| Band gap:            0.069252 a.u.          1.884450 eV

     4 Broy./Diag. 0.40E+00    0.4     0.02025473     -2120.9982455643 -7.61E+00
  Decoupling Energy:                                               0.0001327331

 MO| EIGENVALUES AND OCCUPATION NUMBERS AFTER SCF STEP 4
 MO|
 MO|  Index      Eigenvalue [a.u.]        Eigenvalue [eV]             Occupation
 MO|      1              -9.827463            -267.418870               2.000000
 MO|      2              -9.827285            -267.414015               2.000000
 MO|      3              -9.826877            -267.402921               2.000000
 MO|      4              -9.826876            -267.402902               2.000000
 MO|      5              -9.826522            -267.393258               2.000000
 MO|      6              -9.826406            -267.390118               2.000000
 MO|      7              -9.826383            -267.389491               2.000000
 MO|      8              -9.826329            -267.388016               2.000000
 MO|      9              -9.825921            -267.376908               2.000000
 MO|     10              -9.825913            -267.376693               2.000000
 MO|     11              -9.825908            -267.376566               2.000000
 MO|     12              -9.825891            -267.376084               2.000000
 MO|     13              -9.825799            -267.373590               2.000000
 MO|     14              -9.825778            -267.373005               2.000000
 MO|     15              -9.825641            -267.369285               2.000000
 MO|     16              -9.825635            -267.369130               2.000000
 MO|     17              -9.825204            -267.357385               2.000000
 MO|     18              -9.825188            -267.356969               2.000000
 MO|     19              -9.824676            -267.343042               2.000000
 MO|     20              -9.824675            -267.343009               2.000000
 MO|     21              -9.824639            -267.342034               2.000000
 MO|     22              -9.824639            -267.342026               2.000000
 MO|     23              -9.824369            -267.334674               2.000000
 MO|     24              -9.824357            -267.334362               2.000000
 MO|     25              -9.824356            -267.334335               2.000000
 MO|     26              -9.824344            -267.333986               2.000000
 MO|     27              -9.824114            -267.327745               2.000000
 MO|     28              -9.824111            -267.327662               2.000000
 MO|     29              -9.824091            -267.327102               2.000000
 MO|     30              -9.824088            -267.327037               2.000000
 MO|     31              -9.823872            -267.321163               2.000000
 MO|     32              -9.823871            -267.321122               2.000000
 MO|     33              -9.823837            -267.320213               2.000000
 MO|     34              -9.823837            -267.320207               2.000000
 MO|     35              -9.813543            -267.040084               2.000000
 MO|     36              -9.813540            -267.039998               2.000000
 MO|     37              -9.813495            -267.038785               2.000000
 MO|     38              -9.813492            -267.038688               2.000000
 MO|     39              -9.813218            -267.031240               2.000000
 MO|     40              -9.813206            -267.030909               2.000000
 MO|     41              -9.813157            -267.029582               2.000000
 MO|     42              -9.813150            -267.029403               2.000000
 MO|     43              -9.813062            -267.027002               2.000000
 MO|     44              -9.813062            -267.026985               2.000000
 MO|     45              -9.812539            -267.012764               2.000000
 MO|     46              -9.812539            -267.012762               2.000000
 MO|     47              -9.812524            -267.012362               2.000000
 MO|     48              -9.812524            -267.012355               2.000000
 MO|     49              -9.810599            -266.959963               2.000000
 MO|     50              -9.810598            -266.959943               2.000000
 MO|     51              -9.810597            -266.959911               2.000000
 MO|     52              -9.810596            -266.959884               2.000000
 MO|     53              -9.807691            -266.880848               2.000000
 MO|     54              -9.807691            -266.880840               2.000000
 MO|     55              -9.807691            -266.880837               2.000000
 MO|     56              -9.807691            -266.880833               2.000000
 MO|     57              -0.874999             -23.809925               2.000000
 MO|     58              -0.865884             -23.561909               2.000000
 MO|     59              -0.852336             -23.193239               2.000000
 MO|     60              -0.842662             -22.930003               2.000000
 MO|     61              -0.834821             -22.716629               2.000000
 MO|     62              -0.832549             -22.654804               2.000000
 MO|     63              -0.817931             -22.257035               2.000000
 MO|     64              -0.806488             -21.945662               2.000000
 MO|     65              -0.803115             -21.853879               2.000000
 MO|     66              -0.790447             -21.509143               2.000000
 MO|     67              -0.781719             -21.271668               2.000000
 MO|     68              -0.778807             -21.192414               2.000000
 MO|     69              -0.770220             -20.958741               2.000000
 MO|     70              -0.767761             -20.891826               2.000000
 MO|     71              -0.755054             -20.546059               2.000000
 MO|     72              -0.742895             -20.215201               2.000000
 MO|     73              -0.739261             -20.116308               2.000000
 MO|     74              -0.725591             -19.744336               2.000000
 MO|     75              -0.717438             -19.522487               2.000000
 MO|     76              -0.715466             -19.468832               2.000000
 MO|     77              -0.708817             -19.287881               2.000000
 MO|     78              -0.708193             -19.270919               2.000000
 MO|     79              -0.701495             -19.088649               2.000000
 MO|     80              -0.700228             -19.054170               2.000000
 MO|     81              -0.692214             -18.836107               2.000000
 MO|     82              -0.671644             -18.276368               2.000000
 MO|     83              -0.670593             -18.247764               2.000000
 MO|     84              -0.644068             -17.525982               2.000000
 MO|     85              -0.642608             -17.486250               2.000000
 MO|     86              -0.631043             -17.171555               2.000000
 MO|     87              -0.626199             -17.039735               2.000000
 MO|     88              -0.614880             -16.731745               2.000000
 MO|     89              -0.612118             -16.656574               2.000000
 MO|     90              -0.610208             -16.604605               2.000000
 MO|     91              -0.604681             -16.454218               2.000000
 MO|     92              -0.603472             -16.421318               2.000000
 MO|     93              -0.593099             -16.139045               2.000000
 MO|     94              -0.576887             -15.697895               2.000000
 MO|     95              -0.575281             -15.654190               2.000000
 MO|     96              -0.553313             -15.056417               2.000000
 MO|     97              -0.551826             -15.015947               2.000000
 MO|     98              -0.546688             -14.876143               2.000000
 MO|     99              -0.545217             -14.836105               2.000000
 MO|    100              -0.530758             -14.442655               2.000000
 MO|    101              -0.526986             -14.340019               2.000000
 MO|    102              -0.525385             -14.296456               2.000000
 MO|    103              -0.520953             -14.175865               2.000000
 MO|    104              -0.508539             -13.838045               2.000000
 MO|    105              -0.503219             -13.693293               2.000000
 MO|    106              -0.499420             -13.589915               2.000000
 MO|    107              -0.488558             -13.294328               2.000000
 MO|    108              -0.483870             -13.166771               2.000000
 MO|    109              -0.478883             -13.031063               2.000000
 MO|    110              -0.468318             -12.743579               2.000000
 MO|    111              -0.463850             -12.622005               2.000000
 MO|    112              -0.462984             -12.598423               2.000000
 MO|    113              -0.457425             -12.447164               2.000000
 MO|    114              -0.454845             -12.376955               2.000000
 MO|    115              -0.449405             -12.228941               2.000000
 MO|    116              -0.439477             -11.958787               2.000000
 MO|    117              -0.439030             -11.946616               2.000000
 MO|    118              -0.436549             -11.879106               2.000000
 MO|    119              -0.434949             -11.835553               2.000000
 MO|    120              -0.434659             -11.827661               2.000000
 MO|    121              -0.433053             -11.783976               2.000000
 MO|    122              -0.428859             -11.669837               2.000000
 MO|    123              -0.422913             -11.508052               2.000000
 MO|    124              -0.421944             -11.481675               2.000000
 MO|    125              -0.421237             -11.462441               2.000000
 MO|    126              -0.414407             -11.276593               2.000000
 MO|    127              -0.408388             -11.112809               2.000000
 MO|    128              -0.403427             -10.977816               2.000000
 MO|    129              -0.403176             -10.970988               2.000000
 MO|    130              -0.402109             -10.941942               2.000000
 MO|    131              -0.401846             -10.934789               2.000000
 MO|    132              -0.396723             -10.795371               2.000000
 MO|    133              -0.395985             -10.775298               2.000000
 MO|    134              -0.395464             -10.761114               2.000000
 MO|    135              -0.390883             -10.636457               2.000000
 MO|    136              -0.389717             -10.604742               2.000000
 MO|    137              -0.384072             -10.451142               2.000000
 MO|    138              -0.382824             -10.417160               2.000000
 MO|    139              -0.379143             -10.317017               2.000000
 MO|    140              -0.378452             -10.298201               2.000000
 MO|    141              -0.375834             -10.226968               2.000000
 MO|    142              -0.373076             -10.151901               2.000000
 MO|    143              -0.371277             -10.102965               2.000000
 MO|    144              -0.370143             -10.072094               2.000000
 MO|    145              -0.366992              -9.986373               2.000000
 MO|    146              -0.361968              -9.849660               2.000000
 MO|    147              -0.354672              -9.651128               2.000000
 MO|    148              -0.348146              -9.473532               2.000000
 MO|    149              -0.345508              -9.401740               2.000000
 MO|    150              -0.344618              -9.377524               2.000000
 MO|    151              -0.341699              -9.298091               2.000000
 MO|    152              -0.336761              -9.163735               2.000000
 MO|    153              -0.334253              -9.095487               2.000000
 MO|    154              -0.333857              -9.084714               2.000000
 MO|    155              -0.332575              -9.049828               2.000000
 MO|    156              -0.330295              -8.987794               2.000000
 MO|    157              -0.326755              -8.891443               2.000000
 MO|    158              -0.321758              -8.755486               2.000000
 MO|    159              -0.319489              -8.693735               2.000000
 MO|    160              -0.315130              -8.575130               2.000000
 MO|    161              -0.306625              -8.343683               2.000000
 MO|    162              -0.306555              -8.341797               2.000000
 MO|    163              -0.295703              -8.046479               2.000000
 MO|    164              -0.295069              -8.029244               2.000000
 MO|    165              -0.293291              -7.980849               2.000000
 MO|    166              -0.291444              -7.930603               2.000000
 MO|    167              -0.282287              -7.681426               2.000000
 MO|    168              -0.273923              -7.453819               2.000000
 MO|    169              -0.263748              -7.176939               2.000000
 MO|    170              -0.261687              -7.120877               2.000000
 MO|    171              -0.261004              -7.102293               2.000000
 MO|    172              -0.256335              -6.975222               2.000000
 MO|    173              -0.252043              -6.858427               2.000000
 MO|    174              -0.250045              -6.804061               2.000000
 MO|    175              -0.237810              -6.471138               2.000000
 MO|    176              -0.237756              -6.469664               2.000000
 MO|    177              -0.221964              -6.039946               2.000000
 MO|    178              -0.207263              -5.639913               2.000000
 MO|    179              -0.198275              -5.395340               2.000000
 MO|    180              -0.185928              -5.059357               2.000000
 MO|    181              -0.116408              -3.167633               0.000000
 MO|    182              -0.104063              -2.831712               0.000000
 MO|    183              -0.102039              -2.776633               0.000000
 MO|    184              -0.083040              -2.259634               0.000000
 MO|    185              -0.078949              -2.148323               0.000000
 MO|    186              -0.073541              -2.001150               0.000000
 MO|    187              -0.070410              -1.915945               0.000000
 MO|    188              -0.062582              -1.702948               0.000000
 MO|    189              -0.051744              -1.408038               0.000000
 MO|    190              -0.050551              -1.375551               0.000000
 MO|    191              -0.042264              -1.150065               0.000000
 MO|    192              -0.041787              -1.137075               0.000000
 MO|    193              -0.030112              -0.819382               0.000000
 MO|    194              -0.021021              -0.572018               0.000000
 MO|    195              -0.019171              -0.521682               0.000000
 MO|    196              -0.018159              -0.494131               0.000000
 MO|    197              -0.017010              -0.462874               0.000000
 MO|    198              -0.014666              -0.399071               0.000000
 MO|    199              -0.008909              -0.242430               0.000000
 MO|    200              -0.005403              -0.147027               0.000000
 MO|    201              -0.002119              -0.057663               0.000000
 MO|    202               0.000521               0.014169               0.000000
 MO|    203               0.006549               0.178207               0.000000
 MO|    204               0.010644               0.289636               0.000000
 MO|    205               0.011361               0.309140               0.000000
 MO|    206               0.015324               0.416984               0.000000
 MO|    207               0.020131               0.547797               0.000000
 MO|    208               0.023181               0.630777               0.000000
 MO|    209               0.029841               0.812021               0.000000
 MO|    210               0.030879               0.840264               0.000000
 MO|    211               0.036234               0.985975               0.000000
 MO|    212               0.037520               1.020965               0.000000
 MO|    213               0.039185               1.066279               0.000000
 MO|    214               0.039265               1.068454               0.000000
 MO|    215               0.045974               1.251014               0.000000
 MO|    216               0.049657               1.351234               0.000000
 MO|    217               0.050119               1.363816               0.000000
 MO|    218               0.051135               1.391443               0.000000
 MO|    219               0.053994               1.469243               0.000000
 MO|    220               0.055587               1.512589               0.000000
 MO|    221               0.056559               1.539036               0.000000
 MO|    222               0.058051               1.579636               0.000000
 MO|    223               0.067800               1.844933               0.000000
 MO|    224               0.068154               1.854578               0.000000
 MO|    225               0.068373               1.860518               0.000000
 MO|    226               0.072225               1.965339               0.000000
 MO|    227               0.073612               2.003074               0.000000
 MO|    228               0.074133               2.017269               0.000000
 MO|    229               0.077829               2.117836               0.000000
 MO|    230               0.081756               2.224690               0.000000
 MO|    231               0.085667               2.331121               0.000000
 MO|    232               0.086615               2.356918               0.000000
 MO|    233               0.089607               2.438330               0.000000
 MO|    234               0.094889               2.582063               0.000000
 MO|    235               0.095052               2.586497               0.000000
 MO|    236               0.095333               2.594137               0.000000
 MO|    237               0.096905               2.636913               0.000000
 MO|    238               0.105584               2.873095               0.000000
 MO|    239               0.107359               2.921399               0.000000
 MO|    240               0.109192               2.971267               0.000000
 MO|    241               0.111397               3.031276               0.000000
 MO|    242               0.116828               3.179063               0.000000
 MO|    243               0.120606               3.281859               0.000000
 MO|    244               0.123769               3.367922               0.000000
 MO|    245               0.128313               3.491583               0.000000
 MO|    246               0.129803               3.532123               0.000000
 MO|    247               0.130744               3.557720               0.000000
 MO|    248               0.130844               3.560450               0.000000
 MO|    249               0.132142               3.595769               0.000000
 MO|    250               0.132745               3.612173               0.000000
 MO|    251               0.139627               3.799444               0.000000
 MO|    252               0.139682               3.800939               0.000000
 MO|    253               0.139936               3.807853               0.000000
 MO|    254               0.143931               3.916573               0.000000
 MO|    255               0.144065               3.920218               0.000000
 MO|    256               0.145372               3.955767               0.000000
 MO|    257               0.153025               4.164017               0.000000
 MO|    258               0.153925               4.188500               0.000000
 MO|    259               0.154894               4.214893               0.000000
 MO|    260               0.157670               4.290432               0.000000
 MO|    261               0.158431               4.311139               0.000000
 MO|    262               0.158641               4.316829               0.000000
 MO|    263               0.162633               4.425457               0.000000
 MO|    264               0.167802               4.566132               0.000000
 MO|    265               0.168777               4.592647               0.000000
 MO|    266               0.171186               4.658208               0.000000
 MO|    267               0.172518               4.694456               0.000000
 MO|    268               0.173558               4.722761               0.000000
 MO|    269               0.174148               4.738820               0.000000
 MO|    270               0.175228               4.768200               0.000000
 MO|    271               0.178019               4.844137               0.000000
 MO|    272               0.180870               4.921717               0.000000
 MO|    273               0.182866               4.976033               0.000000
 MO|    274               0.183914               5.004550               0.000000
 MO|    275               0.187013               5.088893               0.000000
 MO|    276               0.187616               5.105279               0.000000
 MO|    277               0.190993               5.197194               0.000000
 MO|    278               0.193496               5.265305               0.000000
 MO|    279               0.194925               5.304182               0.000000
 MO|    280               0.196661               5.351424               0.000000
 MO| Sum:                                                             360.000000
 MO| E(Fermi):           -0.126506 a.u.         -3.442395 eV
 MO| Band gap:            0.069520 a.u.          1.891724 eV

     5 Broy./Diag. 0.40E+00    0.4     0.00756070     -2121.2569509315 -2.59E-01
  Decoupling Energy:                                              -0.0000810209

 MO| EIGENVALUES AND OCCUPATION NUMBERS AFTER SCF STEP 5
 MO|
 MO|  Index      Eigenvalue [a.u.]        Eigenvalue [eV]             Occupation
 MO|      1              -9.822715            -267.289664               2.000000
 MO|      2              -9.822714            -267.289654               2.000000
 MO|      3              -9.822598            -267.286485               2.000000
 MO|      4              -9.822417            -267.281567               2.000000
 MO|      5              -9.821584            -267.258896               2.000000
 MO|      6              -9.821472            -267.255851               2.000000
 MO|      7              -9.821447            -267.255158               2.000000
 MO|      8              -9.821389            -267.253599               2.000000
 MO|      9              -9.821070            -267.244913               2.000000
 MO|     10              -9.821062            -267.244697               2.000000
 MO|     11              -9.821059            -267.244599               2.000000
 MO|     12              -9.821042            -267.244131               2.000000
 MO|     13              -9.820951            -267.241665               2.000000
 MO|     14              -9.820932            -267.241145               2.000000
 MO|     15              -9.820815            -267.237953               2.000000
 MO|     16              -9.820811            -267.237857               2.000000
 MO|     17              -9.820796            -267.237449               2.000000
 MO|     18              -9.820791            -267.237304               2.000000
 MO|     19              -9.820790            -267.237297               2.000000
 MO|     20              -9.820789            -267.237260               2.000000
 MO|     21              -9.820279            -267.223390               2.000000
 MO|     22              -9.820263            -267.222957               2.000000
 MO|     23              -9.819568            -267.204040               2.000000
 MO|     24              -9.819564            -267.203918               2.000000
 MO|     25              -9.819521            -267.202751               2.000000
 MO|     26              -9.819517            -267.202652               2.000000
 MO|     27              -9.819493            -267.201984               2.000000
 MO|     28              -9.819483            -267.201711               2.000000
 MO|     29              -9.819477            -267.201556               2.000000
 MO|     30              -9.819466            -267.201252               2.000000
 MO|     31              -9.819240            -267.195118               2.000000
 MO|     32              -9.819238            -267.195063               2.000000
 MO|     33              -9.819217            -267.194494               2.000000
 MO|     34              -9.819217            -267.194474               2.000000
 MO|     35              -9.808442            -266.901279               2.000000
 MO|     36              -9.808438            -266.901184               2.000000
 MO|     37              -9.808411            -266.900427               2.000000
 MO|     38              -9.808407            -266.900321               2.000000
 MO|     39              -9.808117            -266.892438               2.000000
 MO|     40              -9.808105            -266.892097               2.000000
 MO|     41              -9.808039            -266.890322               2.000000
 MO|     42              -9.808033            -266.890152               2.000000
 MO|     43              -9.807892            -266.886315               2.000000
 MO|     44              -9.807891            -266.886297               2.000000
 MO|     45              -9.807721            -266.881661               2.000000
 MO|     46              -9.807721            -266.881659               2.000000
 MO|     47              -9.807693            -266.880887               2.000000
 MO|     48              -9.807692            -266.880882               2.000000
 MO|     49              -9.806189            -266.839970               2.000000
 MO|     50              -9.806188            -266.839951               2.000000
 MO|     51              -9.806187            -266.839921               2.000000
 MO|     52              -9.806186            -266.839896               2.000000
 MO|     53              -9.802535            -266.740549               2.000000
 MO|     54              -9.802535            -266.740541               2.000000
 MO|     55              -9.802535            -266.740537               2.000000
 MO|     56              -9.802535            -266.740534               2.000000
 MO|     57              -0.868916             -23.644409               2.000000
 MO|     58              -0.860045             -23.403023               2.000000
 MO|     59              -0.846588             -23.036820               2.000000
 MO|     60              -0.836558             -22.763899               2.000000
 MO|     61              -0.829015             -22.558656               2.000000
 MO|     62              -0.826632             -22.493802               2.000000
 MO|     63              -0.812141             -22.099488               2.000000
 MO|     64              -0.800706             -21.788313               2.000000
 MO|     65              -0.797246             -21.694174               2.000000
 MO|     66              -0.784359             -21.343486               2.000000
 MO|     67              -0.775825             -21.111259               2.000000
 MO|     68              -0.773138             -21.038162               2.000000
 MO|     69              -0.764483             -20.802628               2.000000
 MO|     70              -0.761881             -20.731826               2.000000
 MO|     71              -0.749151             -20.385436               2.000000
 MO|     72              -0.737169             -20.059402               2.000000
 MO|     73              -0.733467             -19.958649               2.000000
 MO|     74              -0.719538             -19.579616               2.000000
 MO|     75              -0.711551             -19.362293               2.000000
 MO|     76              -0.709700             -19.311907               2.000000
 MO|     77              -0.703018             -19.130087               2.000000
 MO|     78              -0.702633             -19.119616               2.000000
 MO|     79              -0.695722             -18.931551               2.000000
 MO|     80              -0.694401             -18.895607               2.000000
 MO|     81              -0.686418             -18.678375               2.000000
 MO|     82              -0.665805             -18.117486               2.000000
 MO|     83              -0.664739             -18.088474               2.000000
 MO|     84              -0.638423             -17.372364               2.000000
 MO|     85              -0.637043             -17.334832               2.000000
 MO|     86              -0.625245             -17.013777               2.000000
 MO|     87              -0.620216             -16.876928               2.000000
 MO|     88              -0.608858             -16.567864               2.000000
 MO|     89              -0.606339             -16.499324               2.000000
 MO|     90              -0.604375             -16.445892               2.000000
 MO|     91              -0.598933             -16.297800               2.000000
 MO|     92              -0.597668             -16.263370               2.000000
 MO|     93              -0.587494             -15.986524               2.000000
 MO|     94              -0.571246             -15.544388               2.000000
 MO|     95              -0.569631             -15.500436               2.000000
 MO|     96              -0.547463             -14.897217               2.000000
 MO|     97              -0.545965             -14.856468               2.000000
 MO|     98              -0.541050             -14.722711               2.000000
 MO|     99              -0.539523             -14.681167               2.000000
 MO|    100              -0.525098             -14.288656               2.000000
 MO|    101              -0.521118             -14.180351               2.000000
 MO|    102              -0.519488             -14.136000               2.000000
 MO|    103              -0.515049             -14.015192               2.000000
 MO|    104              -0.502915             -13.685010               2.000000
 MO|    105              -0.497557             -13.539212               2.000000
 MO|    106              -0.493748             -13.435563               2.000000
 MO|    107              -0.482873             -13.139646               2.000000
 MO|    108              -0.478217             -13.012940               2.000000
 MO|    109              -0.473089             -12.873411               2.000000
 MO|    110              -0.462507             -12.585462               2.000000
 MO|    111              -0.457999             -12.462787               2.000000
 MO|    112              -0.457081             -12.437815               2.000000
 MO|    113              -0.451705             -12.291525               2.000000
 MO|    114              -0.449208             -12.223563               2.000000
 MO|    115              -0.443652             -12.072372               2.000000
 MO|    116              -0.433801             -11.804322               2.000000
 MO|    117              -0.433428             -11.794166               2.000000
 MO|    118              -0.430885             -11.724969               2.000000
 MO|    119              -0.429543             -11.688447               2.000000
 MO|    120              -0.429028             -11.674442               2.000000
 MO|    121              -0.427847             -11.642301               2.000000
 MO|    122              -0.423137             -11.514153               2.000000
 MO|    123              -0.417224             -11.353251               2.000000
 MO|    124              -0.416366             -11.329905               2.000000
 MO|    125              -0.415523             -11.306966               2.000000
 MO|    126              -0.408675             -11.120615               2.000000
 MO|    127              -0.402524             -10.953232               2.000000
 MO|    128              -0.397808             -10.824918               2.000000
 MO|    129              -0.397412             -10.814137               2.000000
 MO|    130              -0.396414             -10.786968               2.000000
 MO|    131              -0.396196             -10.781030               2.000000
 MO|    132              -0.390876             -10.636281               2.000000
 MO|    133              -0.390112             -10.615500               2.000000
 MO|    134              -0.389622             -10.602154               2.000000
 MO|    135              -0.384959             -10.475273               2.000000
 MO|    136              -0.384158             -10.453461               2.000000
 MO|    137              -0.378418             -10.297267               2.000000
 MO|    138              -0.377084             -10.260980               2.000000
 MO|    139              -0.373425             -10.161398               2.000000
 MO|    140              -0.372721             -10.142258               2.000000
 MO|    141              -0.370212             -10.073974               2.000000
 MO|    142              -0.367347              -9.996011               2.000000
 MO|    143              -0.365603              -9.948573               2.000000
 MO|    144              -0.364381              -9.915308               2.000000
 MO|    145              -0.361251              -9.830147               2.000000
 MO|    146              -0.356365              -9.697172               2.000000
 MO|    147              -0.349015              -9.497171               2.000000
 MO|    148              -0.342552              -9.321324               2.000000
 MO|    149              -0.340079              -9.254018               2.000000
 MO|    150              -0.338949              -9.223271               2.000000
 MO|    151              -0.336058              -9.144610               2.000000
 MO|    152              -0.331010              -9.007240               2.000000
 MO|    153              -0.328492              -8.938735               2.000000
 MO|    154              -0.328286              -8.933111               2.000000
 MO|    155              -0.326709              -8.890191               2.000000
 MO|    156              -0.324648              -8.834125               2.000000
 MO|    157              -0.321001              -8.734894               2.000000
 MO|    158              -0.316061              -8.600463               2.000000
 MO|    159              -0.313867              -8.540748               2.000000
 MO|    160              -0.309511              -8.422226               2.000000
 MO|    161              -0.300969              -8.189782               2.000000
 MO|    162              -0.300968              -8.189748               2.000000
 MO|    163              -0.290023              -7.891915               2.000000
 MO|    164              -0.289449              -7.876296               2.000000
 MO|    165              -0.287635              -7.826958               2.000000
 MO|    166              -0.285627              -7.772299               2.000000
 MO|    167              -0.276401              -7.521245               2.000000
 MO|    168              -0.268332              -7.301690               2.000000
 MO|    169              -0.258004              -7.020634               2.000000
 MO|    170              -0.256037              -6.967121               2.000000
 MO|    171              -0.255126              -6.942324               2.000000
 MO|    172              -0.250693              -6.821705               2.000000
 MO|    173              -0.246659              -6.711934               2.000000
 MO|    174              -0.244406              -6.650634               2.000000
 MO|    175              -0.232213              -6.318845               2.000000
 MO|    176              -0.232084              -6.315336               2.000000
 MO|    177              -0.216417              -5.889017               2.000000
 MO|    178              -0.201483              -5.482631               2.000000
 MO|    179              -0.192822              -5.246953               2.000000
 MO|    180              -0.180330              -4.907023               2.000000
 MO|    181              -0.110708              -3.012511               0.000000
 MO|    182              -0.098355              -2.676370               0.000000
 MO|    183              -0.096652              -2.630029               0.000000
 MO|    184              -0.077799              -2.117027               0.000000
 MO|    185              -0.073339              -1.995661               0.000000
 MO|    186              -0.067808              -1.845153               0.000000
 MO|    187              -0.064924              -1.766663               0.000000
 MO|    188              -0.057141              -1.554890               0.000000
 MO|    189              -0.046240              -1.258248               0.000000
 MO|    190              -0.045155              -1.228718               0.000000
 MO|    191              -0.036797              -1.001301               0.000000
 MO|    192              -0.036068              -0.981451               0.000000
 MO|    193              -0.024672              -0.671371               0.000000
 MO|    194              -0.017211              -0.468338               0.000000
 MO|    195              -0.015673              -0.426489               0.000000
 MO|    196              -0.012834              -0.349238               0.000000
 MO|    197              -0.012767              -0.347414               0.000000
 MO|    198              -0.010735              -0.292120               0.000000
 MO|    199              -0.004953              -0.134788               0.000000
 MO|    200              -0.001370              -0.037273               0.000000
 MO|    201               0.003413               0.092871               0.000000
 MO|    202               0.004305               0.117155               0.000000
 MO|    203               0.010518               0.286200               0.000000
 MO|    204               0.015110               0.411173               0.000000
 MO|    205               0.016083               0.437643               0.000000
 MO|    206               0.020133               0.547860               0.000000
 MO|    207               0.024044               0.654264               0.000000
 MO|    208               0.027009               0.734962               0.000000
 MO|    209               0.035071               0.954317               0.000000
 MO|    210               0.035238               0.958870               0.000000
 MO|    211               0.040773               1.109477               0.000000
 MO|    212               0.042057               1.144426               0.000000
 MO|    213               0.042986               1.169698               0.000000
 MO|    214               0.043602               1.186461               0.000000
 MO|    215               0.050945               1.386285               0.000000
 MO|    216               0.053563               1.457525               0.000000
 MO|    217               0.055624               1.513619               0.000000
 MO|    218               0.056177               1.528665               0.000000
 MO|    219               0.059356               1.615153               0.000000
 MO|    220               0.060353               1.642280               0.000000
 MO|    221               0.061052               1.661310               0.000000
 MO|    222               0.061992               1.686881               0.000000
 MO|    223               0.072852               1.982413               0.000000
 MO|    224               0.073126               1.989854               0.000000
 MO|    225               0.074429               2.025319               0.000000
 MO|    226               0.076493               2.081481               0.000000
 MO|    227               0.078156               2.126746               0.000000
 MO|    228               0.078721               2.142105               0.000000
 MO|    229               0.083300               2.266697               0.000000
 MO|    230               0.086260               2.347250               0.000000
 MO|    231               0.090095               2.451599               0.000000
 MO|    232               0.092007               2.503627               0.000000
 MO|    233               0.094448               2.570067               0.000000
 MO|    234               0.099601               2.710278               0.000000
 MO|    235               0.100180               2.726040               0.000000
 MO|    236               0.100546               2.735990               0.000000
 MO|    237               0.101284               2.756088               0.000000
 MO|    238               0.110057               2.994811               0.000000
 MO|    239               0.111793               3.042049               0.000000
 MO|    240               0.114263               3.109266               0.000000
 MO|    241               0.116257               3.163524               0.000000
 MO|    242               0.121350               3.302097               0.000000
 MO|    243               0.125478               3.414432               0.000000
 MO|    244               0.128737               3.503104               0.000000
 MO|    245               0.133387               3.629634               0.000000
 MO|    246               0.134597               3.662574               0.000000
 MO|    247               0.136239               3.707255               0.000000
 MO|    248               0.136379               3.711059               0.000000
 MO|    249               0.136395               3.711501               0.000000
 MO|    250               0.137365               3.737899               0.000000
 MO|    251               0.144235               3.924829               0.000000
 MO|    252               0.144684               3.937044               0.000000
 MO|    253               0.145003               3.945722               0.000000
 MO|    254               0.148392               4.037955               0.000000
 MO|    255               0.149389               4.065091               0.000000
 MO|    256               0.150754               4.102228               0.000000
 MO|    257               0.157787               4.293613               0.000000
 MO|    258               0.159693               4.345478               0.000000
 MO|    259               0.159704               4.345771               0.000000
 MO|    260               0.163218               4.441379               0.000000
 MO|    261               0.163513               4.449411               0.000000
 MO|    262               0.164183               4.467637               0.000000
 MO|    263               0.168192               4.576748               0.000000
 MO|    264               0.173103               4.710386               0.000000
 MO|    265               0.174281               4.742438               0.000000
 MO|    266               0.175890               4.786212               0.000000
 MO|    267               0.177045               4.817639               0.000000
 MO|    268               0.179079               4.872985               0.000000
 MO|    269               0.179649               4.888496               0.000000
 MO|    270               0.180937               4.923537               0.000000
 MO|    271               0.183283               4.987391               0.000000
 MO|    272               0.186517               5.075394               0.000000
 MO|    273               0.188135               5.119422               0.000000
 MO|    274               0.189258               5.149972               0.000000
 MO|    275               0.192290               5.232475               0.000000
 MO|    276               0.192349               5.234093               0.000000
 MO|    277               0.196549               5.348366               0.000000
 MO|    278               0.199204               5.420619               0.000000
 MO|    279               0.200040               5.443360               0.000000
 MO|    280               0.202028               5.497473               0.000000
 MO| Sum:                                                             360.000000
 MO| E(Fermi):           -0.120805 a.u.         -3.287273 eV
 MO| Band gap:            0.069622 a.u.          1.894511 eV

     6 Broy./Diag. 0.40E+00    0.4     0.00245064     -2121.1111682031  1.46E-01
  Decoupling Energy:                                              -0.0001086197

 MO| EIGENVALUES AND OCCUPATION NUMBERS AFTER SCF STEP 6
 MO|
 MO|  Index      Eigenvalue [a.u.]        Eigenvalue [eV]             Occupation
 MO|      1              -9.816017            -267.107406               2.000000
 MO|      2              -9.816017            -267.107401               2.000000
 MO|      3              -9.815868            -267.103345               2.000000
 MO|      4              -9.815688            -267.098454               2.000000
 MO|      5              -9.814898            -267.076969               2.000000
 MO|      6              -9.814791            -267.074046               2.000000
 MO|      7              -9.814762            -267.073243               2.000000
 MO|      8              -9.814710            -267.071851               2.000000
 MO|      9              -9.814691            -267.071311               2.000000
 MO|     10              -9.814687            -267.071209               2.000000
 MO|     11              -9.814668            -267.070711               2.000000
 MO|     12              -9.814666            -267.070636               2.000000
 MO|     13              -9.814428            -267.064178               2.000000
 MO|     14              -9.814427            -267.064138               2.000000
 MO|     15              -9.814425            -267.064083               2.000000
 MO|     16              -9.814414            -267.063788               2.000000
 MO|     17              -9.814335            -267.061645               2.000000
 MO|     18              -9.814325            -267.061376               2.000000
 MO|     19              -9.814212            -267.058282               2.000000
 MO|     20              -9.814203            -267.058043               2.000000
 MO|     21              -9.813787            -267.046714               2.000000
 MO|     22              -9.813772            -267.046304               2.000000
 MO|     23              -9.813278            -267.032880               2.000000
 MO|     24              -9.813274            -267.032770               2.000000
 MO|     25              -9.813228            -267.031522               2.000000
 MO|     26              -9.813225            -267.031435               2.000000
 MO|     27              -9.813119            -267.028556               2.000000
 MO|     28              -9.813110            -267.028313               2.000000
 MO|     29              -9.813095            -267.027902               2.000000
 MO|     30              -9.813085            -267.027619               2.000000
 MO|     31              -9.812938            -267.023634               2.000000
 MO|     32              -9.812935            -267.023538               2.000000
 MO|     33              -9.812920            -267.023138               2.000000
 MO|     34              -9.812918            -267.023082               2.000000
 MO|     35              -9.802486            -266.739206               2.000000
 MO|     36              -9.802486            -266.739205               2.000000
 MO|     37              -9.802486            -266.739201               2.000000
 MO|     38              -9.802485            -266.739192               2.000000
 MO|     39              -9.802273            -266.733413               2.000000
 MO|     40              -9.802269            -266.733315               2.000000
 MO|     41              -9.802240            -266.732508               2.000000
 MO|     42              -9.802236            -266.732404               2.000000
 MO|     43              -9.801997            -266.725896               2.000000
 MO|     44              -9.801996            -266.725882               2.000000
 MO|     45              -9.801955            -266.724766               2.000000
 MO|     46              -9.801942            -266.724420               2.000000
 MO|     47              -9.801879            -266.722701               2.000000
 MO|     48              -9.801873            -266.722528               2.000000
 MO|     49              -9.800753            -266.692046               2.000000
 MO|     50              -9.800752            -266.692027               2.000000
 MO|     51              -9.800751            -266.691996               2.000000
 MO|     52              -9.800750            -266.691970               2.000000
 MO|     53              -9.797030            -266.590745               2.000000
 MO|     54              -9.797030            -266.590737               2.000000
 MO|     55              -9.797030            -266.590733               2.000000
 MO|     56              -9.797029            -266.590730               2.000000
 MO|     57              -0.861723             -23.448676               2.000000
 MO|     58              -0.853106             -23.214195               2.000000
 MO|     59              -0.839757             -22.850962               2.000000
 MO|     60              -0.829488             -22.571521               2.000000
 MO|     61              -0.822188             -22.372886               2.000000
 MO|     62              -0.819809             -22.308137               2.000000
 MO|     63              -0.805487             -21.918419               2.000000
 MO|     64              -0.793889             -21.602818               2.000000
 MO|     65              -0.790531             -21.511449               2.000000
 MO|     66              -0.777391             -21.153883               2.000000
 MO|     67              -0.769102             -20.928332               2.000000
 MO|     68              -0.766507             -20.857707               2.000000
 MO|     69              -0.758031             -20.627081               2.000000
 MO|     70              -0.755093             -20.547139               2.000000
 MO|     71              -0.742473             -20.203710               2.000000
 MO|     72              -0.730377             -19.874575               2.000000
 MO|     73              -0.726834             -19.778156               2.000000
 MO|     74              -0.712647             -19.392102               2.000000
 MO|     75              -0.704789             -19.178293               2.000000
 MO|     76              -0.703132             -19.133201               2.000000
 MO|     77              -0.696329             -18.948079               2.000000
 MO|     78              -0.696160             -18.943480               2.000000
 MO|     79              -0.689049             -18.749969               2.000000
 MO|     80              -0.687713             -18.713630               2.000000
 MO|     81              -0.679782             -18.497801               2.000000
 MO|     82              -0.659072             -17.934265               2.000000
 MO|     83              -0.658051             -17.906487               2.000000
 MO|     84              -0.632062             -17.199273               2.000000
 MO|     85              -0.630872             -17.166908               2.000000
 MO|     86              -0.618495             -16.830105               2.000000
 MO|     87              -0.613376             -16.690810               2.000000
 MO|     88              -0.601937             -16.379536               2.000000
 MO|     89              -0.599719             -16.319193               2.000000
 MO|     90              -0.597650             -16.262886               2.000000
 MO|     91              -0.592365             -16.119067               2.000000
 MO|     92              -0.590999             -16.081894               2.000000
 MO|     93              -0.580910             -15.807367               2.000000
 MO|     94              -0.564857             -15.370543               2.000000
 MO|     95              -0.563224             -15.326104               2.000000
 MO|     96              -0.540816             -14.716362               2.000000
 MO|     97              -0.539389             -14.677527               2.000000
 MO|     98              -0.534432             -14.542628               2.000000
 MO|     99              -0.533093             -14.506207               2.000000
 MO|    100              -0.518760             -14.116185               2.000000
 MO|    101              -0.514492             -14.000048               2.000000
 MO|    102              -0.512840             -13.955090               2.000000
 MO|    103              -0.508296             -13.831431               2.000000
 MO|    104              -0.496590             -13.512897               2.000000
 MO|    105              -0.491247             -13.367508               2.000000
 MO|    106              -0.487272             -13.259335               2.000000
 MO|    107              -0.476362             -12.962479               2.000000
 MO|    108              -0.471873             -12.840325               2.000000
 MO|    109              -0.466569             -12.695997               2.000000
 MO|    110              -0.456045             -12.409617               2.000000
 MO|    111              -0.451494             -12.285783               2.000000
 MO|    112              -0.450383             -12.255550               2.000000
 MO|    113              -0.445292             -12.117004               2.000000
 MO|    114              -0.442985             -12.054225               2.000000
 MO|    115              -0.437348             -11.900852               2.000000
 MO|    116              -0.427345             -11.628659               2.000000
 MO|    117              -0.427194             -11.624528               2.000000
 MO|    118              -0.424497             -11.551149               2.000000
 MO|    119              -0.423275             -11.517891               2.000000
 MO|    120              -0.422645             -11.500763               2.000000
 MO|    121              -0.421816             -11.478190               2.000000
 MO|    122              -0.416670             -11.338174               2.000000
 MO|    123              -0.410876             -11.180493               2.000000
 MO|    124              -0.410283             -11.164367               2.000000
 MO|    125              -0.408825             -11.124692               2.000000
 MO|    126              -0.402071             -10.940910               2.000000
 MO|    127              -0.395870             -10.772162               2.000000
 MO|    128              -0.391508             -10.653479               2.000000
 MO|    129              -0.390926             -10.637643               2.000000
 MO|    130              -0.389763             -10.605990               2.000000
 MO|    131              -0.389697             -10.604185               2.000000
 MO|    132              -0.384192             -10.454383               2.000000
 MO|    133              -0.383450             -10.434194               2.000000
 MO|    134              -0.383004             -10.422056               2.000000
 MO|    135              -0.378103             -10.288701               2.000000
 MO|    136              -0.377695             -10.277610               2.000000
 MO|    137              -0.371932             -10.120781               2.000000
 MO|    138              -0.370603             -10.084618               2.000000
 MO|    139              -0.366833              -9.982039               2.000000
 MO|    140              -0.366412              -9.970574               2.000000
 MO|    141              -0.363624              -9.894717               2.000000
 MO|    142              -0.361040              -9.824392               2.000000
 MO|    143              -0.359438              -9.780805               2.000000
 MO|    144              -0.357844              -9.737428               2.000000
 MO|    145              -0.354903              -9.657391               2.000000
 MO|    146              -0.349916              -9.521709               2.000000
 MO|    147              -0.342923              -9.331411               2.000000
 MO|    148              -0.336073              -9.144998               2.000000
 MO|    149              -0.334059              -9.090206               2.000000
 MO|    150              -0.332722              -9.053823               2.000000
 MO|    151              -0.329597              -8.968786               2.000000
 MO|    152              -0.324518              -8.830574               2.000000
 MO|    153              -0.322059              -8.763662               2.000000
 MO|    154              -0.321916              -8.759785               2.000000
 MO|    155              -0.319970              -8.706816               2.000000
 MO|    156              -0.318392              -8.663887               2.000000
 MO|    157              -0.314729              -8.564211               2.000000
 MO|    158              -0.309495              -8.421793               2.000000
 MO|    159              -0.307482              -8.367007               2.000000
 MO|    160              -0.303155              -8.249276               2.000000
 MO|    161              -0.294464              -8.012765               2.000000
 MO|    162              -0.294443              -8.012207               2.000000
 MO|    163              -0.283307              -7.709170               2.000000
 MO|    164              -0.283056              -7.702333               2.000000
 MO|    165              -0.281217              -7.652301               2.000000
 MO|    166              -0.278750              -7.585185               2.000000
 MO|    167              -0.269673              -7.338172               2.000000
 MO|    168              -0.261933              -7.127561               2.000000
 MO|    169              -0.251302              -6.838274               2.000000
 MO|    170              -0.249506              -6.789412               2.000000
 MO|    171              -0.248372              -6.758538               2.000000
 MO|    172              -0.244222              -6.645609               2.000000
 MO|    173              -0.240443              -6.542794               2.000000
 MO|    174              -0.237836              -6.471859               2.000000
 MO|    175              -0.225766              -6.143416               2.000000
 MO|    176              -0.225537              -6.137178               2.000000
 MO|    177              -0.210129              -5.717914               2.000000
 MO|    178              -0.194803              -5.300862               2.000000
 MO|    179              -0.186574              -5.076930               2.000000
 MO|    180              -0.173789              -4.729032               2.000000
 MO|    181              -0.104018              -2.830477               0.000000
 MO|    182              -0.091756              -2.496812               0.000000
 MO|    183              -0.090415              -2.460323               0.000000
 MO|    184              -0.071824              -1.954430               0.000000
 MO|    185              -0.066858              -1.819302               0.000000
 MO|    186              -0.061226              -1.666050               0.000000
 MO|    187              -0.058614              -1.594959               0.000000
 MO|    188              -0.050896              -1.384949               0.000000
 MO|    189              -0.039885              -1.085322               0.000000
 MO|    190              -0.038924              -1.059168               0.000000
 MO|    191              -0.030445              -0.828461               0.000000
 MO|    192              -0.029466              -0.801824               0.000000
 MO|    193              -0.018420              -0.501242               0.000000
 MO|    194              -0.013222              -0.359789               0.000000
 MO|    195              -0.011943              -0.324993               0.000000
 MO|    196              -0.008279              -0.225279               0.000000
 MO|    197              -0.006807              -0.185218               0.000000
 MO|    198              -0.006415              -0.174560               0.000000
 MO|    199              -0.000957              -0.026049               0.000000
 MO|    200               0.002889               0.078618               0.000000
 MO|    201               0.008054               0.219153               0.000000
 MO|    202               0.009883               0.268936               0.000000
 MO|    203               0.014576               0.396646               0.000000
 MO|    204               0.018862               0.513265               0.000000
 MO|    205               0.022365               0.608572               0.000000
 MO|    206               0.025756               0.700863               0.000000
 MO|    207               0.028033               0.762813               0.000000
 MO|    208               0.030851               0.839500               0.000000
 MO|    209               0.039635               1.078520               0.000000
 MO|    210               0.041494               1.129106               0.000000
 MO|    211               0.046258               1.258735               0.000000
 MO|    212               0.046589               1.267762               0.000000
 MO|    213               0.047619               1.295766               0.000000
 MO|    214               0.048731               1.326036               0.000000
 MO|    215               0.056533               1.538332               0.000000
 MO|    216               0.057367               1.561033               0.000000
 MO|    217               0.061919               1.684908               0.000000
 MO|    218               0.062127               1.690555               0.000000
 MO|    219               0.065532               1.783221               0.000000
 MO|    220               0.065830               1.791336               0.000000
 MO|    221               0.065984               1.795516               0.000000
 MO|    222               0.066039               1.797001               0.000000
 MO|    223               0.077483               2.108407               0.000000
 MO|    224               0.078926               2.147686               0.000000
 MO|    225               0.080366               2.186860               0.000000
 MO|    226               0.081265               2.211335               0.000000
 MO|    227               0.082174               2.236074               0.000000
 MO|    228               0.084273               2.293181               0.000000
 MO|    229               0.088693               2.413461               0.000000
 MO|    230               0.091281               2.483875               0.000000
 MO|    231               0.095139               2.588861               0.000000
 MO|    232               0.097203               2.645039               0.000000
 MO|    233               0.099236               2.700356               0.000000
 MO|    234               0.104468               2.842707               0.000000
 MO|    235               0.105762               2.877928               0.000000
 MO|    236               0.106529               2.898808               0.000000
 MO|    237               0.106657               2.902280               0.000000
 MO|    238               0.115238               3.135790               0.000000
 MO|    239               0.116822               3.178887               0.000000
 MO|    240               0.119370               3.248214               0.000000
 MO|    241               0.121105               3.295438               0.000000
 MO|    242               0.126020               3.429173               0.000000
 MO|    243               0.130577               3.553184               0.000000
 MO|    244               0.133902               3.643649               0.000000
 MO|    245               0.139581               3.798189               0.000000
 MO|    246               0.139841               3.805262               0.000000
 MO|    247               0.141128               3.840286               0.000000
 MO|    248               0.141989               3.863727               0.000000
 MO|    249               0.142586               3.879964               0.000000
 MO|    250               0.143457               3.903670               0.000000
 MO|    251               0.148958               4.053352               0.000000
 MO|    252               0.150118               4.084909               0.000000
 MO|    253               0.151216               4.114795               0.000000
 MO|    254               0.152895               4.160473               0.000000
 MO|    255               0.154809               4.212557               0.000000
 MO|    256               0.157307               4.280550               0.000000
 MO|    257               0.162775               4.429321               0.000000
 MO|    258               0.164834               4.485362               0.000000
 MO|    259               0.166427               4.528716               0.000000
 MO|    260               0.168372               4.581641               0.000000
 MO|    261               0.170147               4.629946               0.000000
 MO|    262               0.170675               4.644306               0.000000
 MO|    263               0.174459               4.747268               0.000000
 MO|    264               0.178997               4.870761               0.000000
 MO|    265               0.180606               4.914528               0.000000
 MO|    266               0.181266               4.932485               0.000000
 MO|    267               0.182102               4.955242               0.000000
 MO|    268               0.185323               5.042904               0.000000
 MO|    269               0.185542               5.048849               0.000000
 MO|    270               0.187351               5.098088               0.000000
 MO|    271               0.189410               5.154099               0.000000
 MO|    272               0.192817               5.246830               0.000000
 MO|    273               0.193642               5.269263               0.000000
 MO|    274               0.195256               5.313180               0.000000
 MO|    275               0.197556               5.375775               0.000000
 MO|    276               0.197926               5.385835               0.000000
 MO|    277               0.202752               5.517165               0.000000
 MO|    278               0.205618               5.595149               0.000000
 MO|    279               0.205876               5.602160               0.000000
 MO|    280               0.207925               5.657921               0.000000
 MO| Sum:                                                             360.000000
 MO| E(Fermi):           -0.114115 a.u.         -3.105239 eV
 MO| Band gap:            0.069771 a.u.          1.898555 eV

     7 Broy./Diag. 0.40E+00    0.4     0.00293201     -2121.0903196841  2.08E-02
  Decoupling Energy:                                              -0.0000526577

 MO| EIGENVALUES AND OCCUPATION NUMBERS AFTER SCF STEP 7
 MO|
 MO|  Index      Eigenvalue [a.u.]        Eigenvalue [eV]             Occupation
 MO|      1              -9.807727            -266.881821               2.000000
 MO|      2              -9.807727            -266.881819               2.000000
 MO|      3              -9.807705            -266.881223               2.000000
 MO|      4              -9.807705            -266.881212               2.000000
 MO|      5              -9.807663            -266.880083               2.000000
 MO|      6              -9.807662            -266.880069               2.000000
 MO|      7              -9.806892            -266.859103               2.000000
 MO|      8              -9.806720            -266.854430               2.000000
 MO|      9              -9.806146            -266.838792               2.000000
 MO|     10              -9.806059            -266.836446               2.000000
 MO|     11              -9.805991            -266.834579               2.000000
 MO|     12              -9.805968            -266.833959               2.000000
 MO|     13              -9.805873            -266.831368               2.000000
 MO|     14              -9.805872            -266.831339               2.000000
 MO|     15              -9.805866            -266.831182               2.000000
 MO|     16              -9.805853            -266.830819               2.000000
 MO|     17              -9.805733            -266.827573               2.000000
 MO|     18              -9.805716            -266.827090               2.000000
 MO|     19              -9.805631            -266.824800               2.000000
 MO|     20              -9.805629            -266.824727               2.000000
 MO|     21              -9.805554            -266.822695               2.000000
 MO|     22              -9.805551            -266.822617               2.000000
 MO|     23              -9.805529            -266.822011               2.000000
 MO|     24              -9.805527            -266.821971               2.000000
 MO|     25              -9.805321            -266.816365               2.000000
 MO|     26              -9.805319            -266.816310               2.000000
 MO|     27              -9.805296            -266.815679               2.000000
 MO|     28              -9.805293            -266.815583               2.000000
 MO|     29              -9.805190            -266.812779               2.000000
 MO|     30              -9.805177            -266.812434               2.000000
 MO|     31              -9.804708            -266.799683               2.000000
 MO|     32              -9.804699            -266.799420               2.000000
 MO|     33              -9.804697            -266.799378               2.000000
 MO|     34              -9.804687            -266.799094               2.000000
 MO|     35              -9.796164            -266.567191               2.000000
 MO|     36              -9.796164            -266.567173               2.000000
 MO|     37              -9.795854            -266.558742               2.000000
 MO|     38              -9.795854            -266.558740               2.000000
 MO|     39              -9.795834            -266.558211               2.000000
 MO|     40              -9.795834            -266.558205               2.000000
 MO|     41              -9.794509            -266.522154               2.000000
 MO|     42              -9.794506            -266.522070               2.000000
 MO|     43              -9.794482            -266.521418               2.000000
 MO|     44              -9.794479            -266.521319               2.000000
 MO|     45              -9.794422            -266.519774               2.000000
 MO|     46              -9.794420            -266.519735               2.000000
 MO|     47              -9.794420            -266.519727               2.000000
 MO|     48              -9.794418            -266.519669               2.000000
 MO|     49              -9.794160            -266.512635               2.000000
 MO|     50              -9.794147            -266.512302               2.000000
 MO|     51              -9.794079            -266.510438               2.000000
 MO|     52              -9.794073            -266.510270               2.000000
 MO|     53              -9.790137            -266.403164               2.000000
 MO|     54              -9.790136            -266.403157               2.000000
 MO|     55              -9.790136            -266.403153               2.000000
 MO|     56              -9.790136            -266.403150               2.000000
 MO|     57              -0.853349             -23.220813               2.000000
 MO|     58              -0.845213             -22.999414               2.000000
 MO|     59              -0.832029             -22.640662               2.000000
 MO|     60              -0.821280             -22.348177               2.000000
 MO|     61              -0.814426             -22.161646               2.000000
 MO|     62              -0.812020             -22.096182               2.000000
 MO|     63              -0.797944             -21.713162               2.000000
 MO|     64              -0.786093             -21.390675               2.000000
 MO|     65              -0.782868             -21.302918               2.000000
 MO|     66              -0.769309             -20.933975               2.000000
 MO|     67              -0.761457             -20.720296               2.000000
 MO|     68              -0.758989             -20.653152               2.000000
 MO|     69              -0.750760             -20.429218               2.000000
 MO|     70              -0.747268             -20.334208               2.000000
 MO|     71              -0.734802             -19.994968               2.000000
 MO|     72              -0.722589             -19.662645               2.000000
 MO|     73              -0.719244             -19.571628               2.000000
 MO|     74              -0.704652             -19.174543               2.000000
 MO|     75              -0.696964             -18.965355               2.000000
 MO|     76              -0.695687             -18.930606               2.000000
 MO|     77              -0.689245             -18.755319               2.000000
 MO|     78              -0.688239             -18.727924               2.000000
 MO|     79              -0.681383             -18.541374               2.000000
 MO|     80              -0.679989             -18.503442               2.000000
 MO|     81              -0.672143             -18.289937               2.000000
 MO|     82              -0.651286             -17.722380               2.000000
 MO|     83              -0.650331             -17.696400               2.000000
 MO|     84              -0.624802             -17.001730               2.000000
 MO|     85              -0.623870             -16.976360               2.000000
 MO|     86              -0.610688             -16.617679               2.000000
 MO|     87              -0.605457             -16.475326               2.000000
 MO|     88              -0.593884             -16.160418               2.000000
 MO|     89              -0.592119             -16.112380               2.000000
 MO|     90              -0.589860             -16.050896               2.000000
 MO|     91              -0.584866             -15.915015               2.000000
 MO|     92              -0.583303             -15.872484               2.000000
 MO|     93              -0.573347             -15.601575               2.000000
 MO|     94              -0.557594             -15.172896               2.000000
 MO|     95              -0.555891             -15.126561               2.000000
 MO|     96              -0.533142             -14.507541               2.000000
 MO|     97              -0.531793             -14.470826               2.000000
 MO|     98              -0.526783             -14.334485               2.000000
 MO|     99              -0.525712             -14.305361               2.000000
 MO|    100              -0.511487             -13.918260               2.000000
 MO|    101              -0.506802             -13.790770               2.000000
 MO|    102              -0.505193             -13.746989               2.000000
 MO|    103              -0.500501             -13.619320               2.000000
 MO|    104              -0.489436             -13.318244               2.000000
 MO|    105              -0.483991             -13.170067               2.000000
 MO|    106              -0.479868             -13.057869               2.000000
 MO|    107              -0.468824             -12.757363               2.000000
 MO|    108              -0.464620             -12.642946               2.000000
 MO|    109              -0.459011             -12.490332               2.000000
 MO|    110              -0.448564             -12.206034               2.000000
 MO|    111              -0.443944             -12.080331               2.000000
 MO|    112              -0.442670             -12.045661               2.000000
 MO|    113              -0.437967             -11.917689               2.000000
 MO|    114              -0.435801             -11.858740               2.000000
 MO|    115              -0.430130             -11.704441               2.000000
 MO|    116              -0.420043             -11.429961               2.000000
 MO|    117              -0.420036             -11.429747               2.000000
 MO|    118              -0.417184             -11.352145               2.000000
 MO|    119              -0.416306             -11.328271               2.000000
 MO|    120              -0.415270             -11.300070               2.000000
 MO|    121              -0.415139             -11.296503               2.000000
 MO|    122              -0.409253             -11.136352               2.000000
 MO|    123              -0.403589             -10.982227               2.000000
 MO|    124              -0.403321             -10.974923               2.000000
 MO|    125              -0.401001             -10.911786               2.000000
 MO|    126              -0.394495             -10.734766               2.000000
 MO|    127              -0.388127             -10.561477               2.000000
 MO|    128              -0.384280             -10.456791               2.000000
 MO|    129              -0.383474             -10.434854               2.000000
 MO|    130              -0.382197             -10.400101               2.000000
 MO|    131              -0.382073             -10.396722               2.000000
 MO|    132              -0.376428             -10.243138               2.000000
 MO|    133              -0.375754             -10.224794               2.000000
 MO|    134              -0.375346             -10.213674               2.000000
 MO|    135              -0.370264             -10.075398               2.000000
 MO|    136              -0.370153             -10.072382               2.000000
 MO|    137              -0.364540              -9.919641               2.000000
 MO|    138              -0.363162              -9.882135               2.000000
 MO|    139              -0.359307              -9.777233               2.000000
 MO|    140              -0.359168              -9.773470               2.000000
 MO|    141              -0.356045              -9.688487               2.000000
 MO|    142              -0.353719              -9.625175               2.000000
 MO|    143              -0.352321              -9.587147               2.000000
 MO|    144              -0.350372              -9.534107               2.000000
 MO|    145              -0.347548              -9.457259               2.000000
 MO|    146              -0.342578              -9.322030               2.000000
 MO|    147              -0.335957              -9.141865               2.000000
 MO|    148              -0.328652              -8.943063               2.000000
 MO|    149              -0.327136              -8.901821               2.000000
 MO|    150              -0.325588              -8.859691               2.000000
 MO|    151              -0.322203              -8.767591               2.000000
 MO|    152              -0.317032              -8.626870               2.000000
 MO|    153              -0.314887              -8.568524               2.000000
 MO|    154              -0.314218              -8.550314               2.000000
 MO|    155              -0.312164              -8.494426               2.000000
 MO|    156              -0.311212              -8.468518               2.000000
 MO|    157              -0.307463              -8.366500               2.000000
 MO|    158              -0.301962              -8.216791               2.000000
 MO|    159              -0.300118              -8.166623               2.000000
 MO|    160              -0.295886              -8.051464               2.000000
 MO|    161              -0.286964              -7.808690               2.000000
 MO|    162              -0.286931              -7.807777               2.000000
 MO|    163              -0.275726              -7.502891               2.000000
 MO|    164              -0.275580              -7.498901               2.000000
 MO|    165              -0.273818              -7.450958               2.000000
 MO|    166              -0.270684              -7.365692               2.000000
 MO|    167              -0.261801              -7.123974               2.000000
 MO|    168              -0.254603              -6.928094               2.000000
 MO|    169              -0.243552              -6.627391               2.000000
 MO|    170              -0.241958              -6.584008               2.000000
 MO|    171              -0.240560              -6.545972               2.000000
 MO|    172              -0.236925              -6.447052               2.000000
 MO|    173              -0.233418              -6.351629               2.000000
 MO|    174              -0.230198              -6.264002               2.000000
 MO|    175              -0.218365              -5.942006               2.000000
 MO|    176              -0.217954              -5.930821               2.000000
 MO|    177              -0.202895              -5.521051               2.000000
 MO|    178              -0.187047              -5.089810               2.000000
 MO|    179              -0.179399              -4.881703               2.000000
 MO|    180              -0.166218              -4.523018               2.000000
 MO|    181              -0.096266              -2.619539               0.000000
 MO|    182              -0.084075              -2.287786               0.000000
 MO|    183              -0.083205              -2.264133               0.000000
 MO|    184              -0.064853              -1.764746               0.000000
 MO|    185              -0.059316              -1.614060               0.000000
 MO|    186              -0.053617              -1.458992               0.000000
 MO|    187              -0.051339              -1.396997               0.000000
 MO|    188              -0.043787              -1.191501               0.000000
 MO|    189              -0.032436              -0.882629               0.000000
 MO|    190              -0.031808              -0.865542               0.000000
 MO|    191              -0.022934              -0.624065               0.000000
 MO|    192              -0.021796              -0.593099               0.000000
 MO|    193              -0.011142              -0.303184               0.000000
 MO|    194              -0.005507              -0.149860               0.000000
 MO|    195              -0.004511              -0.122740               0.000000
 MO|    196               0.000455               0.012391               0.000000
 MO|    197               0.000491               0.013357               0.000000
 MO|    198               0.002357               0.064124               0.000000
 MO|    199               0.006867               0.186859               0.000000
 MO|    200               0.011425               0.310902               0.000000
 MO|    201               0.015698               0.427158               0.000000
 MO|    202               0.017416               0.473925               0.000000
 MO|    203               0.022747               0.618965               0.000000
 MO|    204               0.026871               0.731196               0.000000
 MO|    205               0.029757               0.809723               0.000000
 MO|    206               0.033507               0.911770               0.000000
 MO|    207               0.036112               0.982645               0.000000
 MO|    208               0.039047               1.062528               0.000000
 MO|    209               0.047681               1.297460               0.000000
 MO|    210               0.049155               1.337581               0.000000
 MO|    211               0.053714               1.461640               0.000000
 MO|    212               0.054572               1.484968               0.000000
 MO|    213               0.055637               1.513950               0.000000
 MO|    214               0.056283               1.531526               0.000000
 MO|    215               0.063696               1.733252               0.000000
 MO|    216               0.065366               1.778693               0.000000
 MO|    217               0.069648               1.895224               0.000000
 MO|    218               0.070291               1.912714               0.000000
 MO|    219               0.072584               1.975113               0.000000
 MO|    220               0.072863               1.982710               0.000000
 MO|    221               0.073165               1.990925               0.000000
 MO|    222               0.073809               2.008445               0.000000
 MO|    223               0.084726               2.305524               0.000000
 MO|    224               0.086792               2.361735               0.000000
 MO|    225               0.086927               2.365403               0.000000
 MO|    226               0.087957               2.393433               0.000000
 MO|    227               0.090065               2.450792               0.000000
 MO|    228               0.091355               2.485902               0.000000
 MO|    229               0.094685               2.576511               0.000000
 MO|    230               0.098168               2.671290               0.000000
 MO|    231               0.102424               2.787092               0.000000
 MO|    232               0.104520               2.844132               0.000000
 MO|    233               0.105761               2.877909               0.000000
 MO|    234               0.111601               3.036814               0.000000
 MO|    235               0.112780               3.068899               0.000000
 MO|    236               0.113818               3.097138               0.000000
 MO|    237               0.114843               3.125043               0.000000
 MO|    238               0.122640               3.337206               0.000000
 MO|    239               0.124312               3.382706               0.000000
 MO|    240               0.126163               3.433062               0.000000
 MO|    241               0.128441               3.495055               0.000000
 MO|    242               0.132432               3.603650               0.000000
 MO|    243               0.138323               3.763958               0.000000
 MO|    244               0.142037               3.865010               0.000000
 MO|    245               0.147592               4.016181               0.000000
 MO|    246               0.147698               4.019080               0.000000
 MO|    247               0.148371               4.037375               0.000000
 MO|    248               0.149055               4.056000               0.000000
 MO|    249               0.150076               4.083778               0.000000
 MO|    250               0.150907               4.106378               0.000000
 MO|    251               0.156309               4.253385               0.000000
 MO|    252               0.156864               4.268485               0.000000
 MO|    253               0.159344               4.335966               0.000000
 MO|    254               0.160456               4.366239               0.000000
 MO|    255               0.161776               4.402161               0.000000
 MO|    256               0.165905               4.514511               0.000000
 MO|    257               0.169735               4.618725               0.000000
 MO|    258               0.173532               4.722047               0.000000
 MO|    259               0.174328               4.743705               0.000000
 MO|    260               0.176044               4.790396               0.000000
 MO|    261               0.178374               4.853794               0.000000
 MO|    262               0.179186               4.875893               0.000000
 MO|    263               0.182491               4.965841               0.000000
 MO|    264               0.187292               5.096479               0.000000
 MO|    265               0.189177               5.147757               0.000000
 MO|    266               0.189357               5.152663               0.000000
 MO|    267               0.189517               5.157006               0.000000
 MO|    268               0.193581               5.267605               0.000000
 MO|    269               0.193736               5.271835               0.000000
 MO|    270               0.196962               5.359599               0.000000
 MO|    271               0.198487               5.401109               0.000000
 MO|    272               0.200930               5.467590               0.000000
 MO|    273               0.201857               5.492797               0.000000
 MO|    274               0.203591               5.539989               0.000000
 MO|    275               0.205052               5.579749               0.000000
 MO|    276               0.206071               5.607479               0.000000
 MO|    277               0.211505               5.755354               0.000000
 MO|    278               0.215203               5.855979               0.000000
 MO|    279               0.215419               5.861846               0.000000
 MO|    280               0.216309               5.886080               0.000000
 MO| Sum:                                                             360.000000
 MO| E(Fermi):           -0.106364 a.u.         -2.894301 eV
 MO| Band gap:            0.069952 a.u.          1.903479 eV

     8 Broy./Diag. 0.40E+00    0.4     0.00387479     -2121.2677043965 -1.77E-01
  Decoupling Energy:                                              -0.0000134166

 MO| EIGENVALUES AND OCCUPATION NUMBERS AFTER SCF STEP 8
 MO|
 MO|  Index      Eigenvalue [a.u.]        Eigenvalue [eV]             Occupation
 MO|      1              -9.803046            -266.754461               2.000000
 MO|      2              -9.803046            -266.754450               2.000000
 MO|      3              -9.803032            -266.754058               2.000000
 MO|      4              -9.803032            -266.754055               2.000000
 MO|      5              -9.802351            -266.735530               2.000000
 MO|      6              -9.802350            -266.735518               2.000000
 MO|      7              -9.801188            -266.703893               2.000000
 MO|      8              -9.801022            -266.699371               2.000000
 MO|      9              -9.800731            -266.691462               2.000000
 MO|     10              -9.800729            -266.691398               2.000000
 MO|     11              -9.800697            -266.690540               2.000000
 MO|     12              -9.800697            -266.690515               2.000000
 MO|     13              -9.800562            -266.686847               2.000000
 MO|     14              -9.800504            -266.685278               2.000000
 MO|     15              -9.800464            -266.684180               2.000000
 MO|     16              -9.800455            -266.683952               2.000000
 MO|     17              -9.800427            -266.683190               2.000000
 MO|     18              -9.800427            -266.683183               2.000000
 MO|     19              -9.800421            -266.683006               2.000000
 MO|     20              -9.800406            -266.682599               2.000000
 MO|     21              -9.800374            -266.681745               2.000000
 MO|     22              -9.800362            -266.681402               2.000000
 MO|     23              -9.800349            -266.681047               2.000000
 MO|     24              -9.800331            -266.680560               2.000000
 MO|     25              -9.800156            -266.675805               2.000000
 MO|     26              -9.800142            -266.675414               2.000000
 MO|     27              -9.800094            -266.674114               2.000000
 MO|     28              -9.800070            -266.673474               2.000000
 MO|     29              -9.799971            -266.670782               2.000000
 MO|     30              -9.799967            -266.670657               2.000000
 MO|     31              -9.799460            -266.656867               2.000000
 MO|     32              -9.799448            -266.656554               2.000000
 MO|     33              -9.799448            -266.656532               2.000000
 MO|     34              -9.799435            -266.656189               2.000000
 MO|     35              -9.792251            -266.460692               2.000000
 MO|     36              -9.792250            -266.460675               2.000000
 MO|     37              -9.791771            -266.447643               2.000000
 MO|     38              -9.791771            -266.447641               2.000000
 MO|     39              -9.791756            -266.447220               2.000000
 MO|     40              -9.791755            -266.447214               2.000000
 MO|     41              -9.790258            -266.406469               2.000000
 MO|     42              -9.790257            -266.406449               2.000000
 MO|     43              -9.790256            -266.406422               2.000000
 MO|     44              -9.790255            -266.406396               2.000000
 MO|     45              -9.789330            -266.381228               2.000000
 MO|     46              -9.789327            -266.381139               2.000000
 MO|     47              -9.789301            -266.380435               2.000000
 MO|     48              -9.789297            -266.380326               2.000000
 MO|     49              -9.788994            -266.372073               2.000000
 MO|     50              -9.788982            -266.371735               2.000000
 MO|     51              -9.788914            -266.369910               2.000000
 MO|     52              -9.788908            -266.369739               2.000000
 MO|     53              -9.785828            -266.285922               2.000000
 MO|     54              -9.785828            -266.285915               2.000000
 MO|     55              -9.785828            -266.285910               2.000000
 MO|     56              -9.785827            -266.285907               2.000000
 MO|     57              -0.848044             -23.076451               2.000000
 MO|     58              -0.840220             -22.863538               2.000000
 MO|     59              -0.827084             -22.506110               2.000000
 MO|     60              -0.816037             -22.205504               2.000000
 MO|     61              -0.809449             -22.026220               2.000000
 MO|     62              -0.807081             -21.961777               2.000000
 MO|     63              -0.793140             -21.582429               2.000000
 MO|     64              -0.781103             -21.254883               2.000000
 MO|     65              -0.777960             -21.169371               2.000000
 MO|     66              -0.764124             -20.792876               2.000000
 MO|     67              -0.756604             -20.588251               2.000000
 MO|     68              -0.754115             -20.520518               2.000000
 MO|     69              -0.746074             -20.301719               2.000000
 MO|     70              -0.742271             -20.198221               2.000000
 MO|     71              -0.729858             -19.860442               2.000000
 MO|     72              -0.717589             -19.526578               2.000000
 MO|     73              -0.714393             -19.439629               2.000000
 MO|     74              -0.699478             -19.033759               2.000000
 MO|     75              -0.691966             -18.829344               2.000000
 MO|     76              -0.690914             -18.800716               2.000000
 MO|     77              -0.684669             -18.630790               2.000000
 MO|     78              -0.683153             -18.589538               2.000000
 MO|     79              -0.676489             -18.408205               2.000000
 MO|     80              -0.674973             -18.366938               2.000000
 MO|     81              -0.667266             -18.157244               2.000000
 MO|     82              -0.646309             -17.586962               2.000000
 MO|     83              -0.645325             -17.560187               2.000000
 MO|     84              -0.620095             -16.873651               2.000000
 MO|     85              -0.619327             -16.852740               2.000000
 MO|     86              -0.605700             -16.481935               2.000000
 MO|     87              -0.600356             -16.336525               2.000000
 MO|     88              -0.588680             -16.018806               2.000000
 MO|     89              -0.587217             -15.978995               2.000000
 MO|     90              -0.584862             -15.914901               2.000000
 MO|     91              -0.580049             -15.783934               2.000000
 MO|     92              -0.578343             -15.737510               2.000000
 MO|     93              -0.568479             -15.469101               2.000000
 MO|     94              -0.552898             -15.045130               2.000000
 MO|     95              -0.551167             -14.998021               2.000000
 MO|     96              -0.528161             -14.371993               2.000000
 MO|     97              -0.526836             -14.335945               2.000000
 MO|     98              -0.521830             -14.199714               2.000000
 MO|     99              -0.520921             -14.174995               2.000000
 MO|    100              -0.506754             -13.789489               2.000000
 MO|    101              -0.501795             -13.654532               2.000000
 MO|    102              -0.500230             -13.611962               2.000000
 MO|    103              -0.495500             -13.483248               2.000000
 MO|    104              -0.484800             -13.192065               2.000000
 MO|    105              -0.479254             -13.041160               2.000000
 MO|    106              -0.475044             -12.926597               2.000000
 MO|    107              -0.463980             -12.625533               2.000000
 MO|    108              -0.459900             -12.514509               2.000000
 MO|    109              -0.454103             -12.356759               2.000000
 MO|    110              -0.443643             -12.072148               2.000000
 MO|    111              -0.439002             -11.945842               2.000000
 MO|    112              -0.437686             -11.910054               2.000000
 MO|    113              -0.433192             -11.787745               2.000000
 MO|    114              -0.431095             -11.730693               2.000000
 MO|    115              -0.425416             -11.576170               2.000000
 MO|    116              -0.415381             -11.303080               2.000000
 MO|    117              -0.415323             -11.301507               2.000000
 MO|    118              -0.412439             -11.223040               2.000000
 MO|    119              -0.411724             -11.203581               2.000000
 MO|    120              -0.410687             -11.175375               2.000000
 MO|    121              -0.410494             -11.170117               2.000000
 MO|    122              -0.404425             -11.004964               2.000000
 MO|    123              -0.398800             -10.851896               2.000000
 MO|    124              -0.398717             -10.849640               2.000000
 MO|    125              -0.395846             -10.771523               2.000000
 MO|    126              -0.389635             -10.602512               2.000000
 MO|    127              -0.383150             -10.426053               2.000000
 MO|    128              -0.379584             -10.329000               2.000000
 MO|    129              -0.378635             -10.303188               2.000000
 MO|    130              -0.377364             -10.268583               2.000000
 MO|    131              -0.377054             -10.260156               2.000000
 MO|    132              -0.371418             -10.106801               2.000000
 MO|    133              -0.370783             -10.089510               2.000000
 MO|    134              -0.370342             -10.077528               2.000000
 MO|    135              -0.365454              -9.944508               2.000000
 MO|    136              -0.364992              -9.931936               2.000000
 MO|    137              -0.359755              -9.789444               2.000000
 MO|    138              -0.358372              -9.751802               2.000000
 MO|    139              -0.354453              -9.645158               2.000000
 MO|    140              -0.354325              -9.641677               2.000000
 MO|    141              -0.351100              -9.553913               2.000000
 MO|    142              -0.348925              -9.494734               2.000000
 MO|    143              -0.347591              -9.458439               2.000000
 MO|    144              -0.345525              -9.402221               2.000000
 MO|    145              -0.342768              -9.327186               2.000000
 MO|    146              -0.337823              -9.192634               2.000000
 MO|    147              -0.331350              -9.016487               2.000000
 MO|    148              -0.323807              -8.811243               2.000000
 MO|    149              -0.322600              -8.778400               2.000000
 MO|    150              -0.320944              -8.733319               2.000000
 MO|    151              -0.317384              -8.636465               2.000000
 MO|    152              -0.312168              -8.494526               2.000000
 MO|    153              -0.310221              -8.441552               2.000000
 MO|    154              -0.309208              -8.413975               2.000000
 MO|    155              -0.307099              -8.356598               2.000000
 MO|    156              -0.306503              -8.340363               2.000000
 MO|    157              -0.302645              -8.235402               2.000000
 MO|    158              -0.297079              -8.083932               2.000000
 MO|    159              -0.295309              -8.035771               2.000000
 MO|    160              -0.291168              -7.923097               2.000000
 MO|    161              -0.282124              -7.676987               2.000000
 MO|    162              -0.282059              -7.675224               2.000000
 MO|    163              -0.270986              -7.373913               2.000000
 MO|    164              -0.270569              -7.362550               2.000000
 MO|    165              -0.268985              -7.319461               2.000000
 MO|    166              -0.265530              -7.225451               2.000000
 MO|    167              -0.256706              -6.985314               2.000000
 MO|    168              -0.249849              -6.798732               2.000000
 MO|    169              -0.238510              -6.490190               2.000000
 MO|    170              -0.237102              -6.451865               2.000000
 MO|    171              -0.235485              -6.407876               2.000000
 MO|    172              -0.232236              -6.319457               2.000000
 MO|    173              -0.228812              -6.226302               2.000000
 MO|    174              -0.225159              -6.126894               2.000000
 MO|    175              -0.213588              -5.812021               2.000000
 MO|    176              -0.213060              -5.797646               2.000000
 MO|    177              -0.198147              -5.391852               2.000000
 MO|    178              -0.182029              -4.953261               2.000000
 MO|    179              -0.174706              -4.754002               2.000000
 MO|    180              -0.161278              -4.388602               2.000000
 MO|    181              -0.091220              -2.482225               0.000000
 MO|    182              -0.079115              -2.152820               0.000000
 MO|    183              -0.078517              -2.136548               0.000000
 MO|    184              -0.060321              -1.641405               0.000000
 MO|    185              -0.054471              -1.482220               0.000000
 MO|    186              -0.048721              -1.325774               0.000000
 MO|    187              -0.046658              -1.269633               0.000000
 MO|    188              -0.039211              -1.066997               0.000000
 MO|    189              -0.027654              -0.752495               0.000000
 MO|    190              -0.027185              -0.739736               0.000000
 MO|    191              -0.018109              -0.492774               0.000000
 MO|    192              -0.016781              -0.456640               0.000000
 MO|    193              -0.006451              -0.175545               0.000000
 MO|    194              -0.001443              -0.039255               0.000000
 MO|    195              -0.000359              -0.009763               0.000000
 MO|    196               0.004303               0.117104               0.000000
 MO|    197               0.005015               0.136478               0.000000
 MO|    198               0.006411               0.174454               0.000000
 MO|    199               0.010560               0.287339               0.000000
 MO|    200               0.015211               0.413912               0.000000
 MO|    201               0.019680               0.535519               0.000000
 MO|    202               0.022251               0.605491               0.000000
 MO|    203               0.026573               0.723094               0.000000
 MO|    204               0.030972               0.842791               0.000000
 MO|    205               0.034477               0.938173               0.000000
 MO|    206               0.037732               1.026753               0.000000
 MO|    207               0.039931               1.086571               0.000000
 MO|    208               0.043256               1.177047               0.000000
 MO|    209               0.051400               1.398660               0.000000
 MO|    210               0.053555               1.457317               0.000000
 MO|    211               0.057372               1.561182               0.000000
 MO|    212               0.059037               1.606482               0.000000
 MO|    213               0.059557               1.620619               0.000000
 MO|    214               0.059931               1.630815               0.000000
 MO|    215               0.066897               1.820355               0.000000
 MO|    216               0.069606               1.894085               0.000000
 MO|    217               0.072955               1.985209               0.000000
 MO|    218               0.074999               2.040822               0.000000
 MO|    219               0.075694               2.059740               0.000000
 MO|    220               0.076526               2.082365               0.000000
 MO|    221               0.077308               2.103647               0.000000
 MO|    222               0.077731               2.115178               0.000000
 MO|    223               0.088701               2.413685               0.000000
 MO|    224               0.090084               2.451307               0.000000
 MO|    225               0.090716               2.468494               0.000000
 MO|    226               0.091562               2.491520               0.000000
 MO|    227               0.093780               2.551872               0.000000
 MO|    228               0.095007               2.585264               0.000000
 MO|    229               0.097852               2.662697               0.000000
 MO|    230               0.101875               2.772167               0.000000
 MO|    231               0.105845               2.880182               0.000000
 MO|    232               0.108158               2.943131               0.000000
 MO|    233               0.109095               2.968637               0.000000
 MO|    234               0.115606               3.145790               0.000000
 MO|    235               0.116292               3.164472               0.000000
 MO|    236               0.118482               3.224067               0.000000
 MO|    237               0.118825               3.233388               0.000000
 MO|    238               0.126277               3.436173               0.000000
 MO|    239               0.128021               3.483631               0.000000
 MO|    240               0.129538               3.524921               0.000000
 MO|    241               0.132190               3.597070               0.000000
 MO|    242               0.136014               3.701141               0.000000
 MO|    243               0.142550               3.878986               0.000000
 MO|    244               0.146521               3.987047               0.000000
 MO|    245               0.151013               4.109275               0.000000
 MO|    246               0.152220               4.142106               0.000000
 MO|    247               0.152275               4.143601               0.000000
 MO|    248               0.152783               4.157444               0.000000
 MO|    249               0.154735               4.210567               0.000000
 MO|    250               0.154764               4.211353               0.000000
 MO|    251               0.160786               4.375219               0.000000
 MO|    252               0.160884               4.377880               0.000000
 MO|    253               0.163591               4.451525               0.000000
 MO|    254               0.165052               4.491286               0.000000
 MO|    255               0.165233               4.496215               0.000000
 MO|    256               0.170453               4.638254               0.000000
 MO|    257               0.173524               4.721828               0.000000
 MO|    258               0.177935               4.841857               0.000000
 MO|    259               0.179406               4.881880               0.000000
 MO|    260               0.179855               4.894101               0.000000
 MO|    261               0.183636               4.996977               0.000000
 MO|    262               0.184440               5.018869               0.000000
 MO|    263               0.187186               5.093597               0.000000
 MO|    264               0.191794               5.218967               0.000000
 MO|    265               0.193589               5.267836               0.000000
 MO|    266               0.194162               5.283426               0.000000
 MO|    267               0.194418               5.290382               0.000000
 MO|    268               0.198509               5.401700               0.000000
 MO|    269               0.198806               5.409773               0.000000
 MO|    270               0.202059               5.498309               0.000000
 MO|    271               0.203350               5.533436               0.000000
 MO|    272               0.204943               5.576772               0.000000
 MO|    273               0.206722               5.625178               0.000000
 MO|    274               0.208788               5.681407               0.000000
 MO|    275               0.208799               5.681707               0.000000
 MO|    276               0.210999               5.741580               0.000000
 MO|    277               0.216511               5.891567               0.000000
 MO|    278               0.220220               5.992494               0.000000
 MO|    279               0.220338               5.995711               0.000000
 MO|    280               0.221223               6.019776               0.000000
 MO| Sum:                                                             360.000000
 MO| E(Fermi):           -0.101317 a.u.         -2.756987 eV
 MO| Band gap:            0.070058 a.u.          1.906377 eV

     9 Broy./Diag. 0.40E+00    0.4     0.00219016     -2121.4672723009 -2.00E-01
  Decoupling Energy:                                              -0.0000046442

 MO| EIGENVALUES AND OCCUPATION NUMBERS AFTER SCF STEP 9
 MO|
 MO|  Index      Eigenvalue [a.u.]        Eigenvalue [eV]             Occupation
 MO|      1              -9.801340            -266.708018               2.000000
 MO|      2              -9.801339            -266.708007               2.000000
 MO|      3              -9.801325            -266.707620               2.000000
 MO|      4              -9.801325            -266.707617               2.000000
 MO|      5              -9.800477            -266.684549               2.000000
 MO|      6              -9.800477            -266.684537               2.000000
 MO|      7              -9.799151            -266.648459               2.000000
 MO|      8              -9.798985            -266.643932               2.000000
 MO|      9              -9.798833            -266.639806               2.000000
 MO|     10              -9.798830            -266.639720               2.000000
 MO|     11              -9.798798            -266.638859               2.000000
 MO|     12              -9.798797            -266.638838               2.000000
 MO|     13              -9.798581            -266.632939               2.000000
 MO|     14              -9.798579            -266.632894               2.000000
 MO|     15              -9.798534            -266.631660               2.000000
 MO|     16              -9.798533            -266.631653               2.000000
 MO|     17              -9.798526            -266.631456               2.000000
 MO|     18              -9.798469            -266.629905               2.000000
 MO|     19              -9.798413            -266.628376               2.000000
 MO|     20              -9.798399            -266.627991               2.000000
 MO|     21              -9.798348            -266.626598               2.000000
 MO|     22              -9.798330            -266.626108               2.000000
 MO|     23              -9.798328            -266.626054               2.000000
 MO|     24              -9.798310            -266.625563               2.000000
 MO|     25              -9.798125            -266.620530               2.000000
 MO|     26              -9.798107            -266.620044               2.000000
 MO|     27              -9.798079            -266.619292               2.000000
 MO|     28              -9.798044            -266.618338               2.000000
 MO|     29              -9.797972            -266.616376               2.000000
 MO|     30              -9.797959            -266.616011               2.000000
 MO|     31              -9.797475            -266.602847               2.000000
 MO|     32              -9.797463            -266.602531               2.000000
 MO|     33              -9.797462            -266.602496               2.000000
 MO|     34              -9.797449            -266.602151               2.000000
 MO|     35              -9.790346            -266.408871               2.000000
 MO|     36              -9.790346            -266.408854               2.000000
 MO|     37              -9.789962            -266.398413               2.000000
 MO|     38              -9.789962            -266.398411               2.000000
 MO|     39              -9.789945            -266.397939               2.000000
 MO|     40              -9.789944            -266.397934               2.000000
 MO|     41              -9.788552            -266.360044               2.000000
 MO|     42              -9.788551            -266.360025               2.000000
 MO|     43              -9.788550            -266.359998               2.000000
 MO|     44              -9.788549            -266.359972               2.000000
 MO|     45              -9.787308            -266.326202               2.000000
 MO|     46              -9.787305            -266.326122               2.000000
 MO|     47              -9.787281            -266.325468               2.000000
 MO|     48              -9.787277            -266.325357               2.000000
 MO|     49              -9.786955            -266.316582               2.000000
 MO|     50              -9.786943            -266.316252               2.000000
 MO|     51              -9.786873            -266.314368               2.000000
 MO|     52              -9.786867            -266.314200               2.000000
 MO|     53              -9.783922            -266.234046               2.000000
 MO|     54              -9.783921            -266.234039               2.000000
 MO|     55              -9.783921            -266.234035               2.000000
 MO|     56              -9.783921            -266.234032               2.000000
 MO|     57              -0.845952             -23.019538               2.000000
 MO|     58              -0.838213             -22.808931               2.000000
 MO|     59              -0.825089             -22.451806               2.000000
 MO|     60              -0.813950             -22.148696               2.000000
 MO|     61              -0.807435             -21.971429               2.000000
 MO|     62              -0.805078             -21.907293               2.000000
 MO|     63              -0.791178             -21.529043               2.000000
 MO|     64              -0.779087             -21.200029               2.000000
 MO|     65              -0.775967             -21.115146               2.000000
 MO|     66              -0.762041             -20.736181               2.000000
 MO|     67              -0.754617             -20.534172               2.000000
 MO|     68              -0.752119             -20.466205               2.000000
 MO|     69              -0.744121             -20.248564               2.000000
 MO|     70              -0.740258             -20.143445               2.000000
 MO|     71              -0.727842             -19.805595               2.000000
 MO|     72              -0.715575             -19.471794               2.000000
 MO|     73              -0.712416             -19.385821               2.000000
 MO|     74              -0.697392             -18.976999               2.000000
 MO|     75              -0.689945             -18.774367               2.000000
 MO|     76              -0.688952             -18.747351               2.000000
 MO|     77              -0.682760             -18.578851               2.000000
 MO|     78              -0.681115             -18.534068               2.000000
 MO|     79              -0.674505             -18.354201               2.000000
 MO|     80              -0.672939             -18.311602               2.000000
 MO|     81              -0.665280             -18.103195               2.000000
 MO|     82              -0.644301             -17.532311               2.000000
 MO|     83              -0.643290             -17.504818               2.000000
 MO|     84              -0.618132             -16.820237               2.000000
 MO|     85              -0.617404             -16.800427               2.000000
 MO|     86              -0.603698             -16.427448               2.000000
 MO|     87              -0.598297             -16.280500               2.000000
 MO|     88              -0.586598             -15.962138               2.000000
 MO|     89              -0.585220             -15.924657               2.000000
 MO|     90              -0.582849             -15.860134               2.000000
 MO|     91              -0.578079             -15.730332               2.000000
 MO|     92              -0.576334             -15.682851               2.000000
 MO|     93              -0.566508             -15.415466               2.000000
 MO|     94              -0.550956             -14.992269               2.000000
 MO|     95              -0.549218             -14.944995               2.000000
 MO|     96              -0.526127             -14.316642               2.000000
 MO|     97              -0.524793             -14.280347               2.000000
 MO|     98              -0.519831             -14.145315               2.000000
 MO|     99              -0.518945             -14.121222               2.000000
 MO|    100              -0.504789             -13.735995               2.000000
 MO|    101              -0.499751             -13.598928               2.000000
 MO|    102              -0.498192             -13.556487               2.000000
 MO|    103              -0.493481             -13.428297               2.000000
 MO|    104              -0.482868             -13.139510               2.000000
 MO|    105              -0.477284             -12.987545               2.000000
 MO|    106              -0.473052             -12.872391               2.000000
 MO|    107              -0.462008             -12.571881               2.000000
 MO|    108              -0.457942             -12.461230               2.000000
 MO|    109              -0.452091             -12.302013               2.000000
 MO|    110              -0.441593             -12.016356               2.000000
 MO|    111              -0.436968             -11.890497               2.000000
 MO|    112              -0.435670             -11.855192               2.000000
 MO|    113              -0.431207             -11.733741               2.000000
 MO|    114              -0.429117             -11.676864               2.000000
 MO|    115              -0.423441             -11.522405               2.000000
 MO|    116              -0.413416             -11.249610               2.000000
 MO|    117              -0.413388             -11.248852               2.000000
 MO|    118              -0.410487             -11.169910               2.000000
 MO|    119              -0.409744             -11.149699               2.000000
 MO|    120              -0.408741             -11.122397               2.000000
 MO|    121              -0.408548             -11.117166               2.000000
 MO|    122              -0.402437             -10.950869               2.000000
 MO|    123              -0.396803             -10.797552               2.000000
 MO|    124              -0.396761             -10.796416               2.000000
 MO|    125              -0.393690             -10.712856               2.000000
 MO|    126              -0.387681             -10.549345               2.000000
 MO|    127              -0.381131             -10.371096               2.000000
 MO|    128              -0.377637             -10.276017               2.000000
 MO|    129              -0.376634             -10.248743               2.000000
 MO|    130              -0.375396             -10.215049               2.000000
 MO|    131              -0.374938             -10.202589               2.000000
 MO|    132              -0.369406             -10.052058               2.000000
 MO|    133              -0.368770             -10.034733               2.000000
 MO|    134              -0.368298             -10.021889               2.000000
 MO|    135              -0.363498              -9.891270               2.000000
 MO|    136              -0.362843              -9.873451               2.000000
 MO|    137              -0.357797              -9.736156               2.000000
 MO|    138              -0.356417              -9.698606               2.000000
 MO|    139              -0.352403              -9.589367               2.000000
 MO|    140              -0.352283              -9.586119               2.000000
 MO|    141              -0.349015              -9.497175               2.000000
 MO|    142              -0.346929              -9.440426               2.000000
 MO|    143              -0.345603              -9.404335               2.000000
 MO|    144              -0.343530              -9.347940               2.000000
 MO|    145              -0.340801              -9.273671               2.000000
 MO|    146              -0.335809              -9.137823               2.000000
 MO|    147              -0.329384              -8.962982               2.000000
 MO|    148              -0.321754              -8.755366               2.000000
 MO|    149              -0.320715              -8.727088               2.000000
 MO|    150              -0.319010              -8.680703               2.000000
 MO|    151              -0.315347              -8.581041               2.000000
 MO|    152              -0.310171              -8.440181               2.000000
 MO|    153              -0.308289              -8.388980               2.000000
 MO|    154              -0.307189              -8.359048               2.000000
 MO|    155              -0.304981              -8.298962               2.000000
 MO|    156              -0.304534              -8.286782               2.000000
 MO|    157              -0.300622              -8.180347               2.000000
 MO|    158              -0.295023              -8.027993               2.000000
 MO|    159              -0.293269              -7.980260               2.000000
 MO|    160              -0.289229              -7.870314               2.000000
 MO|    161              -0.280170              -7.623820               2.000000
 MO|    162              -0.280016              -7.619630               2.000000
 MO|    163              -0.269039              -7.320919               2.000000
 MO|    164              -0.268484              -7.305826               2.000000
 MO|    165              -0.266945              -7.263954               2.000000
 MO|    166              -0.263515              -7.170595               2.000000
 MO|    167              -0.254655              -6.929515               2.000000
 MO|    168              -0.247838              -6.744007               2.000000
 MO|    169              -0.236405              -6.432901               2.000000
 MO|    170              -0.235067              -6.396500               2.000000
 MO|    171              -0.233378              -6.350529               2.000000
 MO|    172              -0.230265              -6.265834               2.000000
 MO|    173              -0.226851              -6.172931               2.000000
 MO|    174              -0.223053              -6.069579               2.000000
 MO|    175              -0.211575              -5.757237               2.000000
 MO|    176              -0.211008              -5.741832               2.000000
 MO|    177              -0.196127              -5.336894               2.000000
 MO|    178              -0.179939              -4.896394               2.000000
 MO|    179              -0.172715              -4.699822               2.000000
 MO|    180              -0.159228              -4.332803               2.000000
 MO|    181              -0.089148              -2.425839               0.000000
 MO|    182              -0.077069              -2.097141               0.000000
 MO|    183              -0.076597              -2.084308               0.000000
 MO|    184              -0.058501              -1.591896               0.000000
 MO|    185              -0.052496              -1.428498               0.000000
 MO|    186              -0.046724              -1.271418               0.000000
 MO|    187              -0.044737              -1.217349               0.000000
 MO|    188              -0.037330              -1.015803               0.000000
 MO|    189              -0.025735              -0.700283               0.000000
 MO|    190              -0.025274              -0.687733               0.000000
 MO|    191              -0.016215              -0.441246               0.000000
 MO|    192              -0.014710              -0.400269               0.000000
 MO|    193              -0.004583              -0.124707               0.000000
 MO|    194              -0.001720              -0.046810               0.000000
 MO|    195              -0.000715              -0.019460               0.000000
 MO|    196               0.004134               0.112501               0.000000
 MO|    197               0.006181               0.168196               0.000000
 MO|    198               0.006666               0.181400               0.000000
 MO|    199               0.010236               0.278539               0.000000
 MO|    200               0.014877               0.404834               0.000000
 MO|    201               0.019288               0.524862               0.000000
 MO|    202               0.024181               0.658010               0.000000
 MO|    203               0.026179               0.712365               0.000000
 MO|    204               0.030501               0.829988               0.000000
 MO|    205               0.036261               0.986704               0.000000
 MO|    206               0.038524               1.048302               0.000000
 MO|    207               0.039451               1.073514               0.000000
 MO|    208               0.042816               1.165095               0.000000
 MO|    209               0.051034               1.388701               0.000000
 MO|    210               0.054702               1.488505               0.000000
 MO|    211               0.057001               1.551077               0.000000
 MO|    212               0.058527               1.592603               0.000000
 MO|    213               0.059574               1.621085               0.000000
 MO|    214               0.059909               1.630207               0.000000
 MO|    215               0.066535               1.810514               0.000000
 MO|    216               0.069307               1.885944               0.000000
 MO|    217               0.072595               1.975421               0.000000
 MO|    218               0.075142               2.044728               0.000000
 MO|    219               0.076340               2.077321               0.000000
 MO|    220               0.076684               2.086673               0.000000
 MO|    221               0.077300               2.103435               0.000000
 MO|    222               0.078134               2.126123               0.000000
 MO|    223               0.088820               2.416907               0.000000
 MO|    224               0.090895               2.473387               0.000000
 MO|    225               0.091024               2.476880               0.000000
 MO|    226               0.091426               2.487831               0.000000
 MO|    227               0.093589               2.546684               0.000000
 MO|    228               0.095423               2.596579               0.000000
 MO|    229               0.098508               2.680531               0.000000
 MO|    230               0.101793               2.769921               0.000000
 MO|    231               0.105267               2.864468               0.000000
 MO|    232               0.108525               2.953123               0.000000
 MO|    233               0.109569               2.981532               0.000000
 MO|    234               0.115823               3.151694               0.000000
 MO|    235               0.116352               3.166093               0.000000
 MO|    236               0.119497               3.251680               0.000000
 MO|    237               0.119978               3.264766               0.000000
 MO|    238               0.125979               3.428072               0.000000
 MO|    239               0.127532               3.470328               0.000000
 MO|    240               0.130054               3.538953               0.000000
 MO|    241               0.132522               3.606117               0.000000
 MO|    242               0.136471               3.713575               0.000000
 MO|    243               0.142885               3.888107               0.000000
 MO|    244               0.147318               4.008730               0.000000
 MO|    245               0.150376               4.091941               0.000000
 MO|    246               0.151796               4.130572               0.000000
 MO|    247               0.152760               4.156819               0.000000
 MO|    248               0.153326               4.172202               0.000000
 MO|    249               0.155334               4.226843               0.000000
 MO|    250               0.156456               4.257388               0.000000
 MO|    251               0.161291               4.388961               0.000000
 MO|    252               0.161531               4.395487               0.000000
 MO|    253               0.162638               4.425608               0.000000
 MO|    254               0.165415               4.501170               0.000000
 MO|    255               0.165753               4.510374               0.000000
 MO|    256               0.170053               4.627373               0.000000
 MO|    257               0.174310               4.743216               0.000000
 MO|    258               0.178562               4.858915               0.000000
 MO|    259               0.179406               4.881891               0.000000
 MO|    260               0.181422               4.936750               0.000000
 MO|    261               0.185357               5.043822               0.000000
 MO|    262               0.185913               5.058939               0.000000
 MO|    263               0.188655               5.133553               0.000000
 MO|    264               0.192963               5.250787               0.000000
 MO|    265               0.193504               5.265504               0.000000
 MO|    266               0.194818               5.301273               0.000000
 MO|    267               0.195657               5.324100               0.000000
 MO|    268               0.199457               5.427499               0.000000
 MO|    269               0.199888               5.439239               0.000000
 MO|    270               0.203254               5.530818               0.000000
 MO|    271               0.204490               5.564449               0.000000
 MO|    272               0.205753               5.598824               0.000000
 MO|    273               0.207926               5.657963               0.000000
 MO|    274               0.208314               5.668503               0.000000
 MO|    275               0.210124               5.717775               0.000000
 MO|    276               0.212072               5.770760               0.000000
 MO|    277               0.217688               5.923581               0.000000
 MO|    278               0.220862               6.009948               0.000000
 MO|    279               0.221550               6.028680               0.000000
 MO|    280               0.222432               6.052692               0.000000
 MO| Sum:                                                             360.000000
 MO| E(Fermi):           -0.099245 a.u.         -2.700601 eV
 MO| Band gap:            0.070080 a.u.          1.906965 eV

    10 Broy./Diag. 0.40E+00    0.4     0.00097499     -2121.5222980568 -5.50E-02
  Decoupling Energy:                                              -0.0000103717

 MO| EIGENVALUES AND OCCUPATION NUMBERS AFTER SCF STEP 10
 MO|
 MO|  Index      Eigenvalue [a.u.]        Eigenvalue [eV]             Occupation
 MO|      1              -9.800347            -266.681015               2.000000
 MO|      2              -9.800347            -266.681004               2.000000
 MO|      3              -9.800333            -266.680615               2.000000
 MO|      4              -9.800333            -266.680612               2.000000
 MO|      5              -9.799464            -266.656973               2.000000
 MO|      6              -9.799463            -266.656961               2.000000
 MO|      7              -9.798187            -266.622240               2.000000
 MO|      8              -9.798021            -266.617697               2.000000
 MO|      9              -9.797861            -266.613345               2.000000
 MO|     10              -9.797857            -266.613259               2.000000
 MO|     11              -9.797826            -266.612394               2.000000
 MO|     12              -9.797825            -266.612371               2.000000
 MO|     13              -9.797607            -266.606436               2.000000
 MO|     14              -9.797605            -266.606397               2.000000
 MO|     15              -9.797560            -266.605177               2.000000
 MO|     16              -9.797560            -266.605170               2.000000
 MO|     17              -9.797549            -266.604873               2.000000
 MO|     18              -9.797490            -266.603253               2.000000
 MO|     19              -9.797433            -266.601701               2.000000
 MO|     20              -9.797417            -266.601281               2.000000
 MO|     21              -9.797366            -266.599885               2.000000
 MO|     22              -9.797351            -266.599468               2.000000
 MO|     23              -9.797343            -266.599250               2.000000
 MO|     24              -9.797328            -266.598852               2.000000
 MO|     25              -9.797150            -266.594019               2.000000
 MO|     26              -9.797131            -266.593484               2.000000
 MO|     27              -9.797106            -266.592811               2.000000
 MO|     28              -9.797060            -266.591568               2.000000
 MO|     29              -9.797004            -266.590044               2.000000
 MO|     30              -9.796984            -266.589502               2.000000
 MO|     31              -9.796512            -266.576646               2.000000
 MO|     32              -9.796500            -266.576330               2.000000
 MO|     33              -9.796499            -266.576289               2.000000
 MO|     34              -9.796486            -266.575944               2.000000
 MO|     35              -9.789262            -266.379356               2.000000
 MO|     36              -9.789261            -266.379337               2.000000
 MO|     37              -9.789101            -266.374984               2.000000
 MO|     38              -9.789101            -266.374982               2.000000
 MO|     39              -9.789071            -266.374172               2.000000
 MO|     40              -9.789071            -266.374168               2.000000
 MO|     41              -9.787636            -266.335109               2.000000
 MO|     42              -9.787635            -266.335090               2.000000
 MO|     43              -9.787634            -266.335062               2.000000
 MO|     44              -9.787633            -266.335036               2.000000
 MO|     45              -9.786268            -266.297892               2.000000
 MO|     46              -9.786265            -266.297812               2.000000
 MO|     47              -9.786241            -266.297157               2.000000
 MO|     48              -9.786237            -266.297046               2.000000
 MO|     49              -9.785915            -266.288286               2.000000
 MO|     50              -9.785903            -266.287956               2.000000
 MO|     51              -9.785834            -266.286073               2.000000
 MO|     52              -9.785827            -266.285905               2.000000
 MO|     53              -9.783002            -266.209012               2.000000
 MO|     54              -9.783001            -266.209005               2.000000
 MO|     55              -9.783001            -266.209001               2.000000
 MO|     56              -9.783001            -266.208998               2.000000
 MO|     57              -0.844864             -22.989912               2.000000
 MO|     58              -0.837140             -22.779726               2.000000
 MO|     59              -0.824020             -22.422734               2.000000
 MO|     60              -0.812873             -22.119389               2.000000
 MO|     61              -0.806367             -21.942353               2.000000
 MO|     62              -0.804032             -21.878818               2.000000
 MO|     63              -0.790150             -21.501084               2.000000
 MO|     64              -0.778020             -21.170994               2.000000
 MO|     65              -0.774932             -21.086977               2.000000
 MO|     66              -0.760969             -20.707020               2.000000
 MO|     67              -0.753581             -20.505968               2.000000
 MO|     68              -0.751057             -20.437304               2.000000
 MO|     69              -0.743099             -20.220753               2.000000
 MO|     70              -0.739217             -20.115104               2.000000
 MO|     71              -0.726804             -19.777330               2.000000
 MO|     72              -0.714514             -19.442907               2.000000
 MO|     73              -0.711389             -19.357884               2.000000
 MO|     74              -0.696320             -18.947840               2.000000
 MO|     75              -0.688904             -18.746026               2.000000
 MO|     76              -0.687927             -18.719437               2.000000
 MO|     77              -0.681757             -18.551554               2.000000
 MO|     78              -0.680049             -18.505081               2.000000
 MO|     79              -0.673473             -18.326135               2.000000
 MO|     80              -0.671888             -18.283009               2.000000
 MO|     81              -0.664253             -18.075235               2.000000
 MO|     82              -0.643264             -17.504108               2.000000
 MO|     83              -0.642242             -17.476300               2.000000
 MO|     84              -0.617117             -16.792600               2.000000
 MO|     85              -0.616410             -16.773380               2.000000
 MO|     86              -0.602659             -16.399196               2.000000
 MO|     87              -0.597238             -16.251662               2.000000
 MO|     88              -0.585529             -15.933056               2.000000
 MO|     89              -0.584182             -15.896391               2.000000
 MO|     90              -0.581814             -15.831976               2.000000
 MO|     91              -0.577054             -15.702445               2.000000
 MO|     92              -0.575295             -15.654561               2.000000
 MO|     93              -0.565475             -15.387370               2.000000
 MO|     94              -0.549944             -14.964735               2.000000
 MO|     95              -0.548206             -14.917449               2.000000
 MO|     96              -0.525080             -14.288143               2.000000
 MO|     97              -0.523742             -14.251751               2.000000
 MO|     98              -0.518791             -14.117029               2.000000
 MO|     99              -0.517921             -14.093356               2.000000
 MO|    100              -0.503776             -13.708454               2.000000
 MO|    101              -0.498702             -13.570367               2.000000
 MO|    102              -0.497136             -13.527766               2.000000
 MO|    103              -0.492443             -13.400052               2.000000
 MO|    104              -0.481856             -13.111981               2.000000
 MO|    105              -0.476270             -12.959973               2.000000
 MO|    106              -0.472016             -12.844214               2.000000
 MO|    107              -0.460991             -12.544205               2.000000
 MO|    108              -0.456926             -12.433600               2.000000
 MO|    109              -0.451061             -12.273984               2.000000
 MO|    110              -0.440537             -11.987608               2.000000
 MO|    111              -0.435930             -11.862255               2.000000
 MO|    112              -0.434636             -11.827041               2.000000
 MO|    113              -0.430178             -11.705733               2.000000
 MO|    114              -0.428099             -11.649170               2.000000
 MO|    115              -0.422424             -11.494744               2.000000
 MO|    116              -0.412398             -11.221918               2.000000
 MO|    117              -0.412380             -11.221439               2.000000
 MO|    118              -0.409475             -11.142385               2.000000
 MO|    119              -0.408644             -11.119765               2.000000
 MO|    120              -0.407655             -11.092855               2.000000
 MO|    121              -0.407546             -11.089882               2.000000
 MO|    122              -0.401405             -10.922791               2.000000
 MO|    123              -0.395771             -10.769480               2.000000
 MO|    124              -0.395751             -10.768923               2.000000
 MO|    125              -0.392522             -10.681069               2.000000
 MO|    126              -0.386674             -10.521929               2.000000
 MO|    127              -0.380096             -10.342927               2.000000
 MO|    128              -0.376631             -10.248651               2.000000
 MO|    129              -0.375600             -10.220606               2.000000
 MO|    130              -0.374382             -10.187443               2.000000
 MO|    131              -0.373784             -10.171192               2.000000
 MO|    132              -0.368379             -10.024105               2.000000
 MO|    133              -0.367736             -10.006600               2.000000
 MO|    134              -0.367244              -9.993209               2.000000
 MO|    135              -0.362485              -9.863711               2.000000
 MO|    136              -0.361685              -9.841956               2.000000
 MO|    137              -0.356773              -9.708298               2.000000
 MO|    138              -0.355414              -9.671298               2.000000
 MO|    139              -0.351289              -9.559073               2.000000
 MO|    140              -0.351225              -9.557323               2.000000
 MO|    141              -0.347876              -9.466181               2.000000
 MO|    142              -0.345917              -9.412891               2.000000
 MO|    143              -0.344589              -9.376746               2.000000
 MO|    144              -0.342502              -9.319941               2.000000
 MO|    145              -0.339799              -9.246414               2.000000
 MO|    146              -0.334716              -9.108088               2.000000
 MO|    147              -0.328370              -8.935411               2.000000
 MO|    148              -0.320640              -8.725055               2.000000
 MO|    149              -0.319747              -8.700748               2.000000
 MO|    150              -0.318022              -8.653816               2.000000
 MO|    151              -0.314250              -8.551165               2.000000
 MO|    152              -0.309141              -8.412162               2.000000
 MO|    153              -0.307296              -8.361946               2.000000
 MO|    154              -0.306160              -8.331038               2.000000
 MO|    155              -0.303845              -8.268035               2.000000
 MO|    156              -0.303516              -8.259080               2.000000
 MO|    157              -0.299588              -8.152205               2.000000
 MO|    158              -0.293909              -7.997682               2.000000
 MO|    159              -0.292180              -7.950625               2.000000
 MO|    160              -0.288224              -7.842967               2.000000
 MO|    161              -0.279154              -7.596176               2.000000
 MO|    162              -0.278919              -7.589760               2.000000
 MO|    163              -0.268029              -7.293439               2.000000
 MO|    164              -0.267346              -7.274867               2.000000
 MO|    165              -0.265858              -7.234375               2.000000
 MO|    166              -0.262486              -7.142615               2.000000
 MO|    167              -0.253611              -6.901099               2.000000
 MO|    168              -0.246758              -6.714634               2.000000
 MO|    169              -0.235270              -6.402020               2.000000
 MO|    170              -0.233976              -6.366823               2.000000
 MO|    171              -0.232251              -6.319868               2.000000
 MO|    172              -0.229196              -6.236750               2.000000
 MO|    173              -0.225784              -6.143904               2.000000
 MO|    174              -0.221923              -6.038833               2.000000
 MO|    175              -0.210494              -5.727830               2.000000
 MO|    176              -0.209912              -5.711986               2.000000
 MO|    177              -0.195053              -5.307658               2.000000
 MO|    178              -0.178827              -4.866118               2.000000
 MO|    179              -0.171648              -4.670780               2.000000
 MO|    180              -0.158127              -4.302851               2.000000
 MO|    181              -0.088039              -2.395675               0.000000
 MO|    182              -0.075991              -2.067812               0.000000
 MO|    183              -0.075592              -2.056968               0.000000
 MO|    184              -0.057592              -1.567145               0.000000
 MO|    185              -0.051471              -1.400594               0.000000
 MO|    186              -0.045679              -1.243001               0.000000
 MO|    187              -0.043739              -1.190191               0.000000
 MO|    188              -0.036340              -0.988868               0.000000
 MO|    189              -0.024763              -0.673822               0.000000
 MO|    190              -0.024265              -0.660288               0.000000
 MO|    191              -0.015278              -0.415729               0.000000
 MO|    192              -0.013616              -0.370514               0.000000
 MO|    193              -0.003649              -0.099283               0.000000
 MO|    194              -0.003283              -0.089347               0.000000
 MO|    195              -0.002369              -0.064468               0.000000
 MO|    196               0.002692               0.073258               0.000000
 MO|    197               0.004608               0.125381               0.000000
 MO|    198               0.007344               0.199827               0.000000
 MO|    199               0.008700               0.236748               0.000000
 MO|    200               0.013245               0.360427               0.000000
 MO|    201               0.017621               0.479480               0.000000
 MO|    202               0.024485               0.666275               0.000000
 MO|    203               0.025167               0.684821               0.000000
 MO|    204               0.028702               0.781017               0.000000
 MO|    205               0.037088               1.009228               0.000000
 MO|    206               0.037671               1.025093               0.000000
 MO|    207               0.038182               1.038971               0.000000
 MO|    208               0.041018               1.116170               0.000000
 MO|    209               0.049427               1.344988               0.000000
 MO|    210               0.054527               1.483745               0.000000
 MO|    211               0.055416               1.507946               0.000000
 MO|    212               0.056585               1.539749               0.000000
 MO|    213               0.057990               1.577988               0.000000
 MO|    214               0.059445               1.617590               0.000000
 MO|    215               0.065246               1.775444               0.000000
 MO|    216               0.067628               1.840241               0.000000
 MO|    217               0.071316               1.940596               0.000000
 MO|    218               0.073724               2.006129               0.000000
 MO|    219               0.075629               2.057968               0.000000
 MO|    220               0.075887               2.064977               0.000000
 MO|    221               0.076497               2.081580               0.000000
 MO|    222               0.077938               2.120797               0.000000
 MO|    223               0.087664               2.385455               0.000000
 MO|    224               0.090468               2.461767               0.000000
 MO|    225               0.090506               2.462803               0.000000
 MO|    226               0.090876               2.472861               0.000000
 MO|    227               0.092199               2.508870               0.000000
 MO|    228               0.094945               2.583592               0.000000
 MO|    229               0.098380               2.677057               0.000000
 MO|    230               0.100731               2.741027               0.000000
 MO|    231               0.103712               2.822156               0.000000
 MO|    232               0.107773               2.932658               0.000000
 MO|    233               0.109082               2.968262               0.000000
 MO|    234               0.114935               3.127543               0.000000
 MO|    235               0.115463               3.141908               0.000000
 MO|    236               0.119207               3.243785               0.000000
 MO|    237               0.120491               3.278721               0.000000
 MO|    238               0.124658               3.392121               0.000000
 MO|    239               0.126004               3.428749               0.000000
 MO|    240               0.129611               3.526891               0.000000
 MO|    241               0.131718               3.584223               0.000000
 MO|    242               0.136041               3.701870               0.000000
 MO|    243               0.141961               3.862957               0.000000
 MO|    244               0.146896               3.997243               0.000000
 MO|    245               0.148583               4.043156               0.000000
 MO|    246               0.150266               4.088944               0.000000
 MO|    247               0.152080               4.138306               0.000000
 MO|    248               0.152809               4.158144               0.000000
 MO|    249               0.154771               4.211542               0.000000
 MO|    250               0.157190               4.277345               0.000000
 MO|    251               0.160394               4.364539               0.000000
 MO|    252               0.160600               4.370141               0.000000
 MO|    253               0.161148               4.385054               0.000000
 MO|    254               0.164529               4.477053               0.000000
 MO|    255               0.165302               4.498096               0.000000
 MO|    256               0.168196               4.576844               0.000000
 MO|    257               0.174113               4.737849               0.000000
 MO|    258               0.177834               4.839104               0.000000
 MO|    259               0.177911               4.841215               0.000000
 MO|    260               0.182444               4.964566               0.000000
 MO|    261               0.185969               5.060463               0.000000
 MO|    262               0.186217               5.067231               0.000000
 MO|    263               0.189055               5.144435               0.000000
 MO|    264               0.192307               5.232937               0.000000
 MO|    265               0.192875               5.248392               0.000000
 MO|    266               0.193953               5.277731               0.000000
 MO|    267               0.195938               5.331747               0.000000
 MO|    268               0.198675               5.406217               0.000000
 MO|    269               0.200140               5.446099               0.000000
 MO|    270               0.202969               5.523068               0.000000
 MO|    271               0.204679               5.569588               0.000000
 MO|    272               0.205500               5.591950               0.000000
 MO|    273               0.206800               5.627325               0.000000
 MO|    274               0.207940               5.658326               0.000000
 MO|    275               0.210284               5.722132               0.000000
 MO|    276               0.211878               5.765490               0.000000
 MO|    277               0.217682               5.923431               0.000000
 MO|    278               0.220088               5.988911               0.000000
 MO|    279               0.220842               6.009412               0.000000
 MO|    280               0.221396               6.024504               0.000000
 MO| Sum:                                                             360.000000
 MO| E(Fermi):           -0.098137 a.u.         -2.670437 eV
 MO| Band gap:            0.070087 a.u.          1.907175 eV

    11 Broy./Diag. 0.40E+00    0.4     0.00111108     -2121.4886030778  3.37E-02
  Decoupling Energy:                                              -0.0000183722

 MO| EIGENVALUES AND OCCUPATION NUMBERS AFTER SCF STEP 11
 MO|
 MO|  Index      Eigenvalue [a.u.]        Eigenvalue [eV]             Occupation
 MO|      1              -9.799737            -266.664401               2.000000
 MO|      2              -9.799736            -266.664390               2.000000
 MO|      3              -9.799722            -266.664002               2.000000
 MO|      4              -9.799722            -266.663998               2.000000
 MO|      5              -9.798728            -266.636938               2.000000
 MO|      6              -9.798727            -266.636926               2.000000
 MO|      7              -9.797350            -266.599439               2.000000
 MO|      8              -9.797186            -266.594996               2.000000
 MO|      9              -9.797173            -266.594624               2.000000
 MO|     10              -9.797169            -266.594528               2.000000
 MO|     11              -9.797133            -266.593540               2.000000
 MO|     12              -9.797132            -266.593515               2.000000
 MO|     13              -9.796907            -266.587403               2.000000
 MO|     14              -9.796907            -266.587399               2.000000
 MO|     15              -9.796866            -266.586292               2.000000
 MO|     16              -9.796866            -266.586285               2.000000
 MO|     17              -9.796752            -266.583185               2.000000
 MO|     18              -9.796697            -266.581694               2.000000
 MO|     19              -9.796646            -266.580292               2.000000
 MO|     20              -9.796630            -266.579859               2.000000
 MO|     21              -9.796552            -266.577740               2.000000
 MO|     22              -9.796532            -266.577205               2.000000
 MO|     23              -9.796532            -266.577186               2.000000
 MO|     24              -9.796524            -266.576969               2.000000
 MO|     25              -9.796338            -266.571911               2.000000
 MO|     26              -9.796319            -266.571397               2.000000
 MO|     27              -9.796304            -266.570980               2.000000
 MO|     28              -9.796248            -266.569452               2.000000
 MO|     29              -9.796208            -266.568376               2.000000
 MO|     30              -9.796180            -266.567606               2.000000
 MO|     31              -9.795715            -266.554962               2.000000
 MO|     32              -9.795703            -266.554645               2.000000
 MO|     33              -9.795702            -266.554606               2.000000
 MO|     34              -9.795689            -266.554258               2.000000
 MO|     35              -9.788628            -266.362121               2.000000
 MO|     36              -9.788628            -266.362103               2.000000
 MO|     37              -9.788375            -266.355240               2.000000
 MO|     38              -9.788375            -266.355238               2.000000
 MO|     39              -9.788353            -266.354638               2.000000
 MO|     40              -9.788353            -266.354633               2.000000
 MO|     41              -9.786973            -266.317087               2.000000
 MO|     42              -9.786973            -266.317068               2.000000
 MO|     43              -9.786972            -266.317041               2.000000
 MO|     44              -9.786971            -266.317016               2.000000
 MO|     45              -9.785441            -266.275388               2.000000
 MO|     46              -9.785438            -266.275312               2.000000
 MO|     47              -9.785415            -266.274678               2.000000
 MO|     48              -9.785411            -266.274566               2.000000
 MO|     49              -9.785078            -266.265521               2.000000
 MO|     50              -9.785066            -266.265195               2.000000
 MO|     51              -9.784996            -266.263287               2.000000
 MO|     52              -9.784990            -266.263120               2.000000
 MO|     53              -9.782273            -266.189196               2.000000
 MO|     54              -9.782273            -266.189189               2.000000
 MO|     55              -9.782273            -266.189185               2.000000
 MO|     56              -9.782273            -266.189181               2.000000
 MO|     57              -0.844065             -22.968167               2.000000
 MO|     58              -0.836388             -22.759287               2.000000
 MO|     59              -0.823279             -22.402550               2.000000
 MO|     60              -0.812083             -22.097889               2.000000
 MO|     61              -0.805618             -21.921967               2.000000
 MO|     62              -0.803285             -21.858510               2.000000
 MO|     63              -0.789424             -21.481316               2.000000
 MO|     64              -0.777268             -21.150534               2.000000
 MO|     65              -0.774190             -21.066775               2.000000
 MO|     66              -0.760188             -20.685778               2.000000
 MO|     67              -0.752848             -20.486033               2.000000
 MO|     68              -0.750326             -20.417396               2.000000
 MO|     69              -0.742386             -20.201358               2.000000
 MO|     70              -0.738461             -20.094551               2.000000
 MO|     71              -0.726054             -19.756947               2.000000
 MO|     72              -0.713769             -19.422640               2.000000
 MO|     73              -0.710654             -19.337890               2.000000
 MO|     74              -0.695544             -18.926709               2.000000
 MO|     75              -0.688147             -18.725445               2.000000
 MO|     76              -0.687213             -18.700026               2.000000
 MO|     77              -0.681069             -18.532830               2.000000
 MO|     78              -0.679292             -18.484476               2.000000
 MO|     79              -0.672734             -18.306026               2.000000
 MO|     80              -0.671134             -18.262474               2.000000
 MO|     81              -0.663513             -18.055107               2.000000
 MO|     82              -0.642512             -17.483649               2.000000
 MO|     83              -0.641492             -17.455895               2.000000
 MO|     84              -0.616409             -16.773354               2.000000
 MO|     85              -0.615723             -16.754682               2.000000
 MO|     86              -0.601913             -16.378895               2.000000
 MO|     87              -0.596474             -16.230877               2.000000
 MO|     88              -0.584754             -15.911969               2.000000
 MO|     89              -0.583446             -15.876367               2.000000
 MO|     90              -0.581066             -15.811600               2.000000
 MO|     91              -0.576332             -15.682804               2.000000
 MO|     92              -0.574549             -15.634264               2.000000
 MO|     93              -0.564754             -15.367726               2.000000
 MO|     94              -0.549237             -14.945498               2.000000
 MO|     95              -0.547492             -14.898028               2.000000
 MO|     96              -0.524334             -14.267861               2.000000
 MO|     97              -0.523003             -14.231634               2.000000
 MO|     98              -0.518058             -14.097084               2.000000
 MO|     99              -0.517201             -14.073757               2.000000
 MO|    100              -0.503069             -13.689216               2.000000
 MO|    101              -0.497949             -13.549876               2.000000
 MO|    102              -0.496392             -13.507503               2.000000
 MO|    103              -0.491697             -13.379744               2.000000
 MO|    104              -0.481162             -13.093077               2.000000
 MO|    105              -0.475560             -12.940652               2.000000
 MO|    106              -0.471303             -12.824796               2.000000
 MO|    107              -0.460264             -12.524409               2.000000
 MO|    108              -0.456217             -12.414295               2.000000
 MO|    109              -0.450324             -12.253941               2.000000
 MO|    110              -0.439800             -11.967566               2.000000
 MO|    111              -0.435190             -11.842111               2.000000
 MO|    112              -0.433897             -11.806926               2.000000
 MO|    113              -0.429460             -11.686212               2.000000
 MO|    114              -0.427388             -11.629809               2.000000
 MO|    115              -0.421716             -11.475464               2.000000
 MO|    116              -0.411692             -11.202700               2.000000
 MO|    117              -0.411683             -11.202457               2.000000
 MO|    118              -0.408768             -11.123146               2.000000
 MO|    119              -0.407923             -11.100159               2.000000
 MO|    120              -0.406956             -11.073841               2.000000
 MO|    121              -0.406832             -11.070468               2.000000
 MO|    122              -0.400678             -10.902995               2.000000
 MO|    123              -0.395059             -10.750097               2.000000
 MO|    124              -0.395057             -10.750056               2.000000
 MO|    125              -0.391690             -10.658431               2.000000
 MO|    126              -0.385955             -10.502383               2.000000
 MO|    127              -0.379350             -10.322631               2.000000
 MO|    128              -0.375925             -10.229436               2.000000
 MO|    129              -0.374879             -10.200967               2.000000
 MO|    130              -0.373663             -10.167881               2.000000
 MO|    131              -0.372976             -10.149203               2.000000
 MO|    132              -0.367636             -10.003886               2.000000
 MO|    133              -0.366999              -9.986545               2.000000
 MO|    134              -0.366504              -9.973093               2.000000
 MO|    135              -0.361779              -9.844503               2.000000
 MO|    136              -0.360857              -9.819411               2.000000
 MO|    137              -0.356063              -9.688975               2.000000
 MO|    138              -0.354703              -9.651966               2.000000
 MO|    139              -0.350511              -9.537882               2.000000
 MO|    140              -0.350505              -9.537718               2.000000
 MO|    141              -0.347086              -9.444677               2.000000
 MO|    142              -0.345197              -9.393295               2.000000
 MO|    143              -0.343879              -9.357432               2.000000
 MO|    144              -0.341780              -9.300318               2.000000
 MO|    145              -0.339083              -9.226908               2.000000
 MO|    146              -0.333955              -9.087367               2.000000
 MO|    147              -0.327676              -8.916520               2.000000
 MO|    148              -0.319869              -8.704068               2.000000
 MO|    149              -0.319070              -8.682325               2.000000
 MO|    150              -0.317329              -8.634970               2.000000
 MO|    151              -0.313478              -8.530176               2.000000
 MO|    152              -0.308414              -8.392383               2.000000
 MO|    153              -0.306597              -8.342938               2.000000
 MO|    154              -0.305413              -8.310720               2.000000
 MO|    155              -0.303033              -8.245959               2.000000
 MO|    156              -0.302813              -8.239963               2.000000
 MO|    157              -0.298867              -8.132584               2.000000
 MO|    158              -0.293128              -7.976413               2.000000
 MO|    159              -0.291407              -7.929596               2.000000
 MO|    160              -0.287522              -7.823873               2.000000
 MO|    161              -0.278441              -7.576758               2.000000
 MO|    162              -0.278141              -7.568592               2.000000
 MO|    163              -0.267323              -7.274224               2.000000
 MO|    164              -0.266552              -7.253242               2.000000
 MO|    165              -0.265086              -7.213358               2.000000
 MO|    166              -0.261728              -7.121979               2.000000
 MO|    167              -0.252853              -6.880480               2.000000
 MO|    168              -0.246000              -6.694003               2.000000
 MO|    169              -0.234471              -6.380275               2.000000
 MO|    170              -0.233199              -6.345662               2.000000
 MO|    171              -0.231453              -6.298152               2.000000
 MO|    172              -0.228466              -6.216889               2.000000
 MO|    173              -0.225056              -6.124077               2.000000
 MO|    174              -0.221120              -6.016975               2.000000
 MO|    175              -0.209734              -5.707148               2.000000
 MO|    176              -0.209129              -5.690699               2.000000
 MO|    177              -0.194303              -5.287248               2.000000
 MO|    178              -0.178030              -4.844450               2.000000
 MO|    179              -0.170910              -4.650692               2.000000
 MO|    180              -0.157354              -4.281817               2.000000
 MO|    181              -0.087259              -2.374446               0.000000
 MO|    182              -0.075222              -2.046899               0.000000
 MO|    183              -0.074907              -2.038313               0.000000
 MO|    184              -0.056983              -1.550590               0.000000
 MO|    185              -0.050750              -1.380975               0.000000
 MO|    186              -0.044939              -1.222855               0.000000
 MO|    187              -0.043046              -1.171349               0.000000
 MO|    188              -0.035664              -0.970468               0.000000
 MO|    189              -0.024087              -0.655453               0.000000
 MO|    190              -0.023576              -0.641547               0.000000
 MO|    191              -0.014636              -0.398257               0.000000
 MO|    192              -0.012842              -0.349447               0.000000
 MO|    193              -0.004813              -0.130963               0.000000
 MO|    194              -0.004016              -0.109292               0.000000
 MO|    195              -0.003002              -0.081699               0.000000
 MO|    196               0.001447               0.039362               0.000000
 MO|    197               0.003209               0.087323               0.000000
 MO|    198               0.007268               0.197780               0.000000
 MO|    199               0.007766               0.211311               0.000000
 MO|    200               0.011746               0.319628               0.000000
 MO|    201               0.016022               0.435985               0.000000
 MO|    202               0.022848               0.621723               0.000000
 MO|    203               0.025841               0.703164               0.000000
 MO|    204               0.027011               0.735006               0.000000
 MO|    205               0.035931               0.977725               0.000000
 MO|    206               0.037651               1.024528               0.000000
 MO|    207               0.037679               1.025286               0.000000
 MO|    208               0.039314               1.069783               0.000000
 MO|    209               0.047876               1.302782               0.000000
 MO|    210               0.053850               1.465345               0.000000
 MO|    211               0.053993               1.469212               0.000000
 MO|    212               0.054604               1.485860               0.000000
 MO|    213               0.056463               1.536432               0.000000
 MO|    214               0.059161               1.609857               0.000000
 MO|    215               0.064299               1.749677               0.000000
 MO|    216               0.065849               1.791833               0.000000
 MO|    217               0.070389               1.915391               0.000000
 MO|    218               0.072634               1.976462               0.000000
 MO|    219               0.074133               2.017257               0.000000
 MO|    220               0.075233               2.047203               0.000000
 MO|    221               0.076363               2.077938               0.000000
 MO|    222               0.077721               2.114900               0.000000
 MO|    223               0.086366               2.350144               0.000000
 MO|    224               0.089757               2.442420               0.000000
 MO|    225               0.090203               2.454560               0.000000
 MO|    226               0.090733               2.468964               0.000000
 MO|    227               0.090900               2.473508               0.000000
 MO|    228               0.094511               2.571784               0.000000
 MO|    229               0.098141               2.670558               0.000000
 MO|    230               0.099824               2.716353               0.000000
 MO|    231               0.102519               2.789671               0.000000
 MO|    232               0.106826               2.906894               0.000000
 MO|    233               0.108487               2.952088               0.000000
 MO|    234               0.114050               3.103455               0.000000
 MO|    235               0.114677               3.120527               0.000000
 MO|    236               0.118958               3.237023               0.000000
 MO|    237               0.120763               3.286120               0.000000
 MO|    238               0.123536               3.361581               0.000000
 MO|    239               0.124793               3.395798               0.000000
 MO|    240               0.128980               3.509721               0.000000
 MO|    241               0.130880               3.561415               0.000000
 MO|    242               0.135547               3.688410               0.000000
 MO|    243               0.140980               3.836253               0.000000
 MO|    244               0.146422               3.984344               0.000000
 MO|    245               0.146977               3.999440               0.000000
 MO|    246               0.149039               4.055548               0.000000
 MO|    247               0.151347               4.118372               0.000000
 MO|    248               0.152149               4.140180               0.000000
 MO|    249               0.153860               4.186736               0.000000
 MO|    250               0.157675               4.290543               0.000000
 MO|    251               0.158585               4.315329               0.000000
 MO|    252               0.159691               4.345420               0.000000
 MO|    253               0.160645               4.371370               0.000000
 MO|    254               0.163491               4.448820               0.000000
 MO|    255               0.164720               4.482250               0.000000
 MO|    256               0.166266               4.524339               0.000000
 MO|    257               0.173694               4.726462               0.000000
 MO|    258               0.176720               4.808783               0.000000
 MO|    259               0.176762               4.809946               0.000000
 MO|    260               0.183180               4.984577               0.000000
 MO|    261               0.186256               5.068283               0.000000
 MO|    262               0.186279               5.068921               0.000000
 MO|    263               0.189206               5.148565               0.000000
 MO|    264               0.191252               5.204226               0.000000
 MO|    265               0.192318               5.233250               0.000000
 MO|    266               0.192912               5.249401               0.000000
 MO|    267               0.195836               5.328960               0.000000
 MO|    268               0.197576               5.376311               0.000000
 MO|    269               0.200168               5.446859               0.000000
 MO|    270               0.202331               5.505700               0.000000
 MO|    271               0.204756               5.571701               0.000000
 MO|    272               0.204989               5.578035               0.000000
 MO|    273               0.205589               5.594357               0.000000
 MO|    274               0.207759               5.653415               0.000000
 MO|    275               0.210232               5.720707               0.000000
 MO|    276               0.211410               5.752750               0.000000
 MO|    277               0.217477               5.917861               0.000000
 MO|    278               0.219010               5.959554               0.000000
 MO|    279               0.219433               5.971081               0.000000
 MO|    280               0.221002               6.013760               0.000000
 MO| Sum:                                                             360.000000
 MO| E(Fermi):           -0.097357 a.u.         -2.649208 eV
 MO| Band gap:            0.070095 a.u.          1.907372 eV

    12 Broy./Diag. 0.40E+00    0.4     0.00110151     -2121.4594781485  2.91E-02
  Decoupling Energy:                                              -0.0000209663

 MO| EIGENVALUES AND OCCUPATION NUMBERS AFTER SCF STEP 12
 MO|
 MO|  Index      Eigenvalue [a.u.]        Eigenvalue [eV]             Occupation
 MO|      1              -9.799117            -266.647543               2.000000
 MO|      2              -9.799117            -266.647532               2.000000
 MO|      3              -9.799103            -266.647142               2.000000
 MO|      4              -9.799102            -266.647139               2.000000
 MO|      5              -9.798025            -266.617814               2.000000
 MO|      6              -9.798024            -266.617802               2.000000
 MO|      7              -9.796606            -266.579195               2.000000
 MO|      8              -9.796557            -266.577869               2.000000
 MO|      9              -9.796553            -266.577768               2.000000
 MO|     10              -9.796521            -266.576895               2.000000
 MO|     11              -9.796517            -266.576796               2.000000
 MO|     12              -9.796439            -266.574667               2.000000
 MO|     13              -9.796296            -266.570766               2.000000
 MO|     14              -9.796296            -266.570758               2.000000
 MO|     15              -9.796254            -266.569625               2.000000
 MO|     16              -9.796254            -266.569619               2.000000
 MO|     17              -9.796037            -266.563731               2.000000
 MO|     18              -9.795988            -266.562383               2.000000
 MO|     19              -9.795950            -266.561364               2.000000
 MO|     20              -9.795936            -266.560975               2.000000
 MO|     21              -9.795829            -266.558058               2.000000
 MO|     22              -9.795814            -266.557646               2.000000
 MO|     23              -9.795806            -266.557431               2.000000
 MO|     24              -9.795804            -266.557383               2.000000
 MO|     25              -9.795637            -266.552828               2.000000
 MO|     26              -9.795631            -266.552683               2.000000
 MO|     27              -9.795593            -266.551634               2.000000
 MO|     28              -9.795526            -266.549822               2.000000
 MO|     29              -9.795525            -266.549791               2.000000
 MO|     30              -9.795473            -266.548376               2.000000
 MO|     31              -9.795047            -266.536778               2.000000
 MO|     32              -9.795035            -266.536458               2.000000
 MO|     33              -9.795033            -266.536410               2.000000
 MO|     34              -9.795020            -266.536057               2.000000
 MO|     35              -9.788103            -266.347816               2.000000
 MO|     36              -9.788102            -266.347798               2.000000
 MO|     37              -9.787871            -266.341502               2.000000
 MO|     38              -9.787870            -266.341501               2.000000
 MO|     39              -9.787847            -266.340867               2.000000
 MO|     40              -9.787847            -266.340862               2.000000
 MO|     41              -9.786444            -266.302689               2.000000
 MO|     42              -9.786443            -266.302670               2.000000
 MO|     43              -9.786442            -266.302643               2.000000
 MO|     44              -9.786442            -266.302617               2.000000
 MO|     45              -9.784768            -266.257067               2.000000
 MO|     46              -9.784765            -266.256988               2.000000
 MO|     47              -9.784741            -266.256341               2.000000
 MO|     48              -9.784737            -266.256229               2.000000
 MO|     49              -9.784411            -266.247375               2.000000
 MO|     50              -9.784399            -266.247047               2.000000
 MO|     51              -9.784330            -266.245155               2.000000
 MO|     52              -9.784324            -266.244987               2.000000
 MO|     53              -9.781752            -266.175001               2.000000
 MO|     54              -9.781751            -266.174994               2.000000
 MO|     55              -9.781751            -266.174990               2.000000
 MO|     56              -9.781751            -266.174987               2.000000
 MO|     57              -0.843422             -22.950679               2.000000
 MO|     58              -0.835787             -22.742929               2.000000
 MO|     59              -0.822679             -22.386243               2.000000
 MO|     60              -0.811450             -22.080689               2.000000
 MO|     61              -0.805015             -21.905560               2.000000
 MO|     62              -0.802696             -21.842474               2.000000
 MO|     63              -0.788850             -21.465696               2.000000
 MO|     64              -0.776661             -21.134021               2.000000
 MO|     65              -0.773601             -21.050754               2.000000
 MO|     66              -0.759565             -20.668823               2.000000
 MO|     67              -0.752273             -20.470385               2.000000
 MO|     68              -0.749730             -20.401194               2.000000
 MO|     69              -0.741826             -20.186121               2.000000
 MO|     70              -0.737860             -20.078179               2.000000
 MO|     71              -0.725460             -19.740780               2.000000
 MO|     72              -0.713160             -19.406073               2.000000
 MO|     73              -0.710072             -19.322050               2.000000
 MO|     74              -0.694918             -18.909693               2.000000
 MO|     75              -0.687546             -18.709092               2.000000
 MO|     76              -0.686643             -18.684511               2.000000
 MO|     77              -0.680520             -18.517897               2.000000
 MO|     78              -0.678672             -18.467610               2.000000
 MO|     79              -0.672145             -18.289994               2.000000
 MO|     80              -0.670524             -18.245880               2.000000
 MO|     81              -0.662927             -18.039168               2.000000
 MO|     82              -0.641912             -17.467313               2.000000
 MO|     83              -0.640886             -17.439389               2.000000
 MO|     84              -0.615842             -16.757924               2.000000
 MO|     85              -0.615179             -16.739872               2.000000
 MO|     86              -0.601308             -16.362433               2.000000
 MO|     87              -0.595858             -16.214120               2.000000
 MO|     88              -0.584125             -15.894839               2.000000
 MO|     89              -0.582854             -15.860254               2.000000
 MO|     90              -0.580461             -15.795140               2.000000
 MO|     91              -0.575752             -15.667020               2.000000
 MO|     92              -0.573946             -15.617873               2.000000
 MO|     93              -0.564161             -15.351600               2.000000
 MO|     94              -0.548671             -14.930097               2.000000
 MO|     95              -0.546925             -14.882573               2.000000
 MO|     96              -0.523732             -14.251478               2.000000
 MO|     97              -0.522406             -14.215385               2.000000
 MO|     98              -0.517453             -14.080607               2.000000
 MO|     99              -0.516623             -14.058039               2.000000
 MO|    100              -0.502500             -13.673712               2.000000
 MO|    101              -0.497341             -13.533348               2.000000
 MO|    102              -0.495794             -13.491239               2.000000
 MO|    103              -0.491094             -13.363355               2.000000
 MO|    104              -0.480606             -13.077960               2.000000
 MO|    105              -0.474990             -12.925133               2.000000
 MO|    106              -0.470720             -12.808941               2.000000
 MO|    107              -0.459678             -12.508464               2.000000
 MO|    108              -0.455650             -12.398856               2.000000
 MO|    109              -0.449731             -12.237800               2.000000
 MO|    110              -0.439208             -11.951448               2.000000
 MO|    111              -0.434593             -11.825870               2.000000
 MO|    112              -0.433296             -11.790573               2.000000
 MO|    113              -0.428885             -11.670565               2.000000
 MO|    114              -0.426823             -11.614435               2.000000
 MO|    115              -0.421154             -11.460180               2.000000
 MO|    116              -0.411133             -11.187498               2.000000
 MO|    117              -0.411117             -11.187053               2.000000
 MO|    118              -0.408197             -11.107609               2.000000
 MO|    119              -0.407361             -11.084844               2.000000
 MO|    120              -0.406406             -11.058871               2.000000
 MO|    121              -0.406253             -11.054697               2.000000
 MO|    122              -0.400091             -10.887035               2.000000
 MO|    123              -0.394506             -10.735062               2.000000
 MO|    124              -0.394480             -10.734356               2.000000
 MO|    125              -0.391053             -10.641101               2.000000
 MO|    126              -0.385368             -10.486393               2.000000
 MO|    127              -0.378751             -10.306345               2.000000
 MO|    128              -0.375360             -10.214052               2.000000
 MO|    129              -0.374296             -10.185108               2.000000
 MO|    130              -0.373078             -10.151956               2.000000
 MO|    131              -0.372362             -10.132479               2.000000
 MO|    132              -0.367028              -9.987342               2.000000
 MO|    133              -0.366400              -9.970247               2.000000
 MO|    134              -0.365900              -9.956657               2.000000
 MO|    135              -0.361192              -9.828543               2.000000
 MO|    136              -0.360231              -9.802387               2.000000
 MO|    137              -0.355485              -9.673243               2.000000
 MO|    138              -0.354129              -9.636342               2.000000
 MO|    139              -0.349928              -9.522038               2.000000
 MO|    140              -0.349921              -9.521822               2.000000
 MO|    141              -0.346481              -9.428215               2.000000
 MO|    142              -0.344621              -9.377608               2.000000
 MO|    143              -0.343309              -9.341919               2.000000
 MO|    144              -0.341197              -9.284447               2.000000
 MO|    145              -0.338508              -9.211269               2.000000
 MO|    146              -0.333383              -9.071800               2.000000
 MO|    147              -0.327128              -8.901598               2.000000
 MO|    148              -0.319280              -8.688046               2.000000
 MO|    149              -0.318521              -8.667401               2.000000
 MO|    150              -0.316775              -8.619878               2.000000
 MO|    151              -0.312897              -8.514355               2.000000
 MO|    152              -0.307826              -8.376375               2.000000
 MO|    153              -0.306035              -8.327626               2.000000
 MO|    154              -0.304802              -8.294079               2.000000
 MO|    155              -0.302422              -8.229333               2.000000
 MO|    156              -0.302247              -8.224568               2.000000
 MO|    157              -0.298287              -8.116801               2.000000
 MO|    158              -0.292540              -7.960423               2.000000
 MO|    159              -0.290825              -7.913744               2.000000
 MO|    160              -0.286951              -7.808347               2.000000
 MO|    161              -0.277852              -7.560730               2.000000
 MO|    162              -0.277553              -7.552612               2.000000
 MO|    163              -0.266749              -7.258620               2.000000
 MO|    164              -0.265943              -7.236682               2.000000
 MO|    165              -0.264503              -7.197504               2.000000
 MO|    166              -0.261096              -7.104774               2.000000
 MO|    167              -0.252232              -6.863590               2.000000
 MO|    168              -0.245430              -6.678489               2.000000
 MO|    169              -0.233859              -6.363617               2.000000
 MO|    170              -0.232615              -6.329789               2.000000
 MO|    171              -0.230843              -6.281562               2.000000
 MO|    172              -0.227910              -6.201757               2.000000
 MO|    173              -0.224499              -6.108920               2.000000
 MO|    174              -0.220503              -6.000205               2.000000
 MO|    175              -0.209162              -5.691587               2.000000
 MO|    176              -0.208540              -5.674675               2.000000
 MO|    177              -0.193730              -5.271667               2.000000
 MO|    178              -0.177426              -4.828017               2.000000
 MO|    179              -0.170344              -4.635308               2.000000
 MO|    180              -0.156755              -4.265524               2.000000
 MO|    181              -0.086652              -2.357911               0.000000
 MO|    182              -0.074631              -2.030817               0.000000
 MO|    183              -0.074362              -2.023482               0.000000
 MO|    184              -0.056479              -1.536859               0.000000
 MO|    185              -0.050187              -1.365661               0.000000
 MO|    186              -0.044353              -1.206916               0.000000
 MO|    187              -0.042505              -1.156625               0.000000
 MO|    188              -0.035128              -0.955875               0.000000
 MO|    189              -0.023550              -0.640819               0.000000
 MO|    190              -0.023033              -0.626758               0.000000
 MO|    191              -0.014093              -0.383479               0.000000
 MO|    192              -0.012240              -0.333065               0.000000
 MO|    193              -0.005187              -0.141136               0.000000
 MO|    194              -0.004466              -0.121525               0.000000
 MO|    195              -0.002474              -0.067328               0.000000
 MO|    196               0.001353               0.036826               0.000000
 MO|    197               0.003051               0.083018               0.000000
 MO|    198               0.006989               0.190185               0.000000
 MO|    199               0.008198               0.223084               0.000000
 MO|    200               0.011499               0.312911               0.000000
 MO|    201               0.015645               0.425720               0.000000
 MO|    202               0.022488               0.611924               0.000000
 MO|    203               0.026391               0.718139               0.000000
 MO|    204               0.026618               0.724311               0.000000
 MO|    205               0.035493               0.965814               0.000000
 MO|    206               0.037726               1.026590               0.000000
 MO|    207               0.038152               1.038166               0.000000
 MO|    208               0.038930               1.059345               0.000000
 MO|    209               0.047541               1.293651               0.000000
 MO|    210               0.053519               1.456319               0.000000
 MO|    211               0.054004               1.469515               0.000000
 MO|    212               0.054034               1.470343               0.000000
 MO|    213               0.056174               1.528568               0.000000
 MO|    214               0.059380               1.615823               0.000000
 MO|    215               0.064265               1.748730               0.000000
 MO|    216               0.065361               1.778564               0.000000
 MO|    217               0.070379               1.915112               0.000000
 MO|    218               0.072474               1.972111               0.000000
 MO|    219               0.073858               2.009782               0.000000
 MO|    220               0.075234               2.047227               0.000000
 MO|    221               0.076585               2.083986               0.000000
 MO|    222               0.077950               2.121137               0.000000
 MO|    223               0.086098               2.342840               0.000000
 MO|    224               0.089745               2.442094               0.000000
 MO|    225               0.090442               2.461063               0.000000
 MO|    226               0.090671               2.467284               0.000000
 MO|    227               0.091029               2.477030               0.000000
 MO|    228               0.094740               2.578003               0.000000
 MO|    229               0.098341               2.675992               0.000000
 MO|    230               0.099729               2.713769               0.000000
 MO|    231               0.102355               2.785208               0.000000
 MO|    232               0.106707               2.903638               0.000000
 MO|    233               0.108520               2.952989               0.000000
 MO|    234               0.114022               3.102693               0.000000
 MO|    235               0.114683               3.120693               0.000000
 MO|    236               0.119199               3.243561               0.000000
 MO|    237               0.121126               3.296009               0.000000
 MO|    238               0.123369               3.357044               0.000000
 MO|    239               0.124605               3.390680               0.000000
 MO|    240               0.128968               3.509403               0.000000
 MO|    241               0.130866               3.561033               0.000000
 MO|    242               0.135619               3.690368               0.000000
 MO|    243               0.140896               3.833982               0.000000
 MO|    244               0.146568               3.988310               0.000000
 MO|    245               0.146672               3.991145               0.000000
 MO|    246               0.148835               4.050015               0.000000
 MO|    247               0.151387               4.119446               0.000000
 MO|    248               0.152135               4.139815               0.000000
 MO|    249               0.153728               4.183157               0.000000
 MO|    250               0.158148               4.303434               0.000000
 MO|    251               0.158281               4.307045               0.000000
 MO|    252               0.159542               4.341348               0.000000
 MO|    253               0.160713               4.373214               0.000000
 MO|    254               0.163302               4.443664               0.000000
 MO|    255               0.164809               4.484678               0.000000
 MO|    256               0.165783               4.511197               0.000000
 MO|    257               0.173751               4.728000               0.000000
 MO|    258               0.176531               4.803659               0.000000
 MO|    259               0.176549               4.804140               0.000000
 MO|    260               0.183778               5.000862               0.000000
 MO|    261               0.186570               5.076815               0.000000
 MO|    262               0.186689               5.080057               0.000000
 MO|    263               0.189572               5.158504               0.000000
 MO|    264               0.191086               5.199707               0.000000
 MO|    265               0.192268               5.231880               0.000000
 MO|    266               0.192704               5.243753               0.000000
 MO|    267               0.196049               5.334760               0.000000
 MO|    268               0.197379               5.370945               0.000000
 MO|    269               0.200501               5.455916               0.000000
 MO|    270               0.202355               5.506351               0.000000
 MO|    271               0.205070               5.580228               0.000000
 MO|    272               0.205136               5.582024               0.000000
 MO|    273               0.205411               5.589512               0.000000
 MO|    274               0.208014               5.660353               0.000000
 MO|    275               0.210515               5.728398               0.000000
 MO|    276               0.211496               5.755104               0.000000
 MO|    277               0.217623               5.921832               0.000000
 MO|    278               0.218913               5.956920               0.000000
 MO|    279               0.219131               5.962845               0.000000
 MO|    280               0.221219               6.019667               0.000000
 MO| Sum:                                                             360.000000
 MO| E(Fermi):           -0.096749 a.u.         -2.632673 eV
 MO| Band gap:            0.070103 a.u.          1.907613 eV

    13 Broy./Diag. 0.40E+00    0.4     0.00041779     -2121.4650766752 -5.60E-03
  Decoupling Energy:                                              -0.0000216746

 MO| EIGENVALUES AND OCCUPATION NUMBERS AFTER SCF STEP 13
 MO|
 MO|  Index      Eigenvalue [a.u.]        Eigenvalue [eV]             Occupation
 MO|      1              -9.798647            -266.634737               2.000000
 MO|      2              -9.798646            -266.634726               2.000000
 MO|      3              -9.798632            -266.634339               2.000000
 MO|      4              -9.798632            -266.634335               2.000000
 MO|      5              -9.797488            -266.603217               2.000000
 MO|      6              -9.797488            -266.603205               2.000000
 MO|      7              -9.796029            -266.563502               2.000000
 MO|      8              -9.796025            -266.563399               2.000000
 MO|      9              -9.796013            -266.563074               2.000000
 MO|     10              -9.795992            -266.562495               2.000000
 MO|     11              -9.795989            -266.562409               2.000000
 MO|     12              -9.795848            -266.558576               2.000000
 MO|     13              -9.795769            -266.556420               2.000000
 MO|     14              -9.795768            -266.556410               2.000000
 MO|     15              -9.795726            -266.555272               2.000000
 MO|     16              -9.795726            -266.555266               2.000000
 MO|     17              -9.795458            -266.547969               2.000000
 MO|     18              -9.795411            -266.546683               2.000000
 MO|     19              -9.795376            -266.545731               2.000000
 MO|     20              -9.795362            -266.545360               2.000000
 MO|     21              -9.795248            -266.542263               2.000000
 MO|     22              -9.795236            -266.541932               2.000000
 MO|     23              -9.795226            -266.541643               2.000000
 MO|     24              -9.795220            -266.541487               2.000000
 MO|     25              -9.795057            -266.537056               2.000000
 MO|     26              -9.795055            -266.537013               2.000000
 MO|     27              -9.795008            -266.535729               2.000000
 MO|     28              -9.794946            -266.534047               2.000000
 MO|     29              -9.794945            -266.534004               2.000000
 MO|     30              -9.794893            -266.532589               2.000000
 MO|     31              -9.794479            -266.521325               2.000000
 MO|     32              -9.794467            -266.521004               2.000000
 MO|     33              -9.794465            -266.520950               2.000000
 MO|     34              -9.794452            -266.520597               2.000000
 MO|     35              -9.787624            -266.334782               2.000000
 MO|     36              -9.787623            -266.334764               2.000000
 MO|     37              -9.787384            -266.328260               2.000000
 MO|     38              -9.787384            -266.328259               2.000000
 MO|     39              -9.787361            -266.327638               2.000000
 MO|     40              -9.787361            -266.327633               2.000000
 MO|     41              -9.785997            -266.290525               2.000000
 MO|     42              -9.785996            -266.290505               2.000000
 MO|     43              -9.785995            -266.290479               2.000000
 MO|     44              -9.785995            -266.290453               2.000000
 MO|     45              -9.784233            -266.242525               2.000000
 MO|     46              -9.784230            -266.242448               2.000000
 MO|     47              -9.784207            -266.241812               2.000000
 MO|     48              -9.784203            -266.241700               2.000000
 MO|     49              -9.783872            -266.232685               2.000000
 MO|     50              -9.783860            -266.232359               2.000000
 MO|     51              -9.783790            -266.230453               2.000000
 MO|     52              -9.783783            -266.230286               2.000000
 MO|     53              -9.781253            -266.161429               2.000000
 MO|     54              -9.781253            -266.161422               2.000000
 MO|     55              -9.781253            -266.161418               2.000000
 MO|     56              -9.781252            -266.161415               2.000000
 MO|     57              -0.842877             -22.935849               2.000000
 MO|     58              -0.835272             -22.728897               2.000000
 MO|     59              -0.822168             -22.372339               2.000000
 MO|     60              -0.810909             -22.065954               2.000000
 MO|     61              -0.804498             -21.891508               2.000000
 MO|     62              -0.802181             -21.828461               2.000000
 MO|     63              -0.788347             -21.452007               2.000000
 MO|     64              -0.776141             -21.119867               2.000000
 MO|     65              -0.773089             -21.036811               2.000000
 MO|     66              -0.759028             -20.654198               2.000000
 MO|     67              -0.751766             -20.456599               2.000000
 MO|     68              -0.749218             -20.387260               2.000000
 MO|     69              -0.741331             -20.172639               2.000000
 MO|     70              -0.737338             -20.063980               2.000000
 MO|     71              -0.724943             -19.726692               2.000000
 MO|     72              -0.712639             -19.391883               2.000000
 MO|     73              -0.709563             -19.308178               2.000000
 MO|     74              -0.694381             -18.895067               2.000000
 MO|     75              -0.687023             -18.694851               2.000000
 MO|     76              -0.686143             -18.670905               2.000000
 MO|     77              -0.680034             -18.504678               2.000000
 MO|     78              -0.678142             -18.453182               2.000000
 MO|     79              -0.671631             -18.276020               2.000000
 MO|     80              -0.669998             -18.231580               2.000000
 MO|     81              -0.662414             -18.025198               2.000000
 MO|     82              -0.641390             -17.453118               2.000000
 MO|     83              -0.640360             -17.425094               2.000000
 MO|     84              -0.615340             -16.744248               2.000000
 MO|     85              -0.614689             -16.726549               2.000000
 MO|     86              -0.600786             -16.348224               2.000000
 MO|     87              -0.595325             -16.199630               2.000000
 MO|     88              -0.583586             -15.880175               2.000000
 MO|     89              -0.582339             -15.846247               2.000000
 MO|     90              -0.579936             -15.780863               2.000000
 MO|     91              -0.575245             -15.653210               2.000000
 MO|     92              -0.573425             -15.603683               2.000000
 MO|     93              -0.563649             -15.337677               2.000000
 MO|     94              -0.548173             -14.916551               2.000000
 MO|     95              -0.546424             -14.868957               2.000000
 MO|     96              -0.523208             -14.237219               2.000000
 MO|     97              -0.521883             -14.201161               2.000000
 MO|     98              -0.516932             -14.066446               2.000000
 MO|     99              -0.516117             -14.044255               2.000000
 MO|    100              -0.501996             -13.659995               2.000000
 MO|    101              -0.496815             -13.519014               2.000000
 MO|    102              -0.495273             -13.477064               2.000000
 MO|    103              -0.490570             -13.349102               2.000000
 MO|    104              -0.480116             -13.064631               2.000000
 MO|    105              -0.474486             -12.911417               2.000000
 MO|    106              -0.470210             -12.795056               2.000000
 MO|    107              -0.459166             -12.494549               2.000000
 MO|    108              -0.455151             -12.385279               2.000000
 MO|    109              -0.449212             -12.223671               2.000000
 MO|    110              -0.438688             -11.937298               2.000000
 MO|    111              -0.434071             -11.811682               2.000000
 MO|    112              -0.432774             -11.776377               2.000000
 MO|    113              -0.428380             -11.656801               2.000000
 MO|    114              -0.426320             -11.600764               2.000000
 MO|    115              -0.420655             -11.446600               2.000000
 MO|    116              -0.410636             -11.173978               2.000000
 MO|    117              -0.410619             -11.173514               2.000000
 MO|    118              -0.407697             -11.094013               2.000000
 MO|    119              -0.406874             -11.071593               2.000000
 MO|    120              -0.405928             -11.045857               2.000000
 MO|    121              -0.405747             -11.040925               2.000000
 MO|    122              -0.399580             -10.873122               2.000000
 MO|    123              -0.394014             -10.721667               2.000000
 MO|    124              -0.393973             -10.720538               2.000000
 MO|    125              -0.390514             -10.626424               2.000000
 MO|    126              -0.384858             -10.472514               2.000000
 MO|    127              -0.378228             -10.292103               2.000000
 MO|    128              -0.374860             -10.200454               2.000000
 MO|    129              -0.373783             -10.171154               2.000000
 MO|    130              -0.372567             -10.138059               2.000000
 MO|    131              -0.371835             -10.118146               2.000000
 MO|    132              -0.366501              -9.972999               2.000000
 MO|    133              -0.365879              -9.956070               2.000000
 MO|    134              -0.365377              -9.942412               2.000000
 MO|    135              -0.360683              -9.814686               2.000000
 MO|    136              -0.359695              -9.787807               2.000000
 MO|    137              -0.354982              -9.659550               2.000000
 MO|    138              -0.353624              -9.622595               2.000000
 MO|    139              -0.349421              -9.508220               2.000000
 MO|    140              -0.349408              -9.507875               2.000000
 MO|    141              -0.345962              -9.414099               2.000000
 MO|    142              -0.344109              -9.363670               2.000000
 MO|    143              -0.342802              -9.328130               2.000000
 MO|    144              -0.340686              -9.270550               2.000000
 MO|    145              -0.338000              -9.197450               2.000000
 MO|    146              -0.332883              -9.058219               2.000000
 MO|    147              -0.326636              -8.888223               2.000000
 MO|    148              -0.318770              -8.674181               2.000000
 MO|    149              -0.318036              -8.654208               2.000000
 MO|    150              -0.316281              -8.606448               2.000000
 MO|    151              -0.312392              -8.500606               2.000000
 MO|    152              -0.307312              -8.362384               2.000000
 MO|    153              -0.305536              -8.314047               2.000000
 MO|    154              -0.304272              -8.279668               2.000000
 MO|    155              -0.301895              -8.214990               2.000000
 MO|    156              -0.301746              -8.210936               2.000000
 MO|    157              -0.297773              -8.102822               2.000000
 MO|    158              -0.292030              -7.946554               2.000000
 MO|    159              -0.290316              -7.899910               2.000000
 MO|    160              -0.286452              -7.794759               2.000000
 MO|    161              -0.277340              -7.546816               2.000000
 MO|    162              -0.277043              -7.538734               2.000000
 MO|    163              -0.266245              -7.244902               2.000000
 MO|    164              -0.265424              -7.222546               2.000000
 MO|    165              -0.263996              -7.183695               2.000000
 MO|    166              -0.260557              -7.090105               2.000000
 MO|    167              -0.251695              -6.848975               2.000000
 MO|    168              -0.244930              -6.664885               2.000000
 MO|    169              -0.233333              -6.349321               2.000000
 MO|    170              -0.232107              -6.315948               2.000000
 MO|    171              -0.230320              -6.267329               2.000000
 MO|    172              -0.227426              -6.188569               2.000000
 MO|    173              -0.224013              -6.095690               2.000000
 MO|    174              -0.219976              -5.985862               2.000000
 MO|    175              -0.208660              -5.677939               2.000000
 MO|    176              -0.208028              -5.660722               2.000000
 MO|    177              -0.193228              -5.257992               2.000000
 MO|    178              -0.176903              -4.813780               2.000000
 MO|    179              -0.169849              -4.621814               2.000000
 MO|    180              -0.156241              -4.251531               2.000000
 MO|    181              -0.086133              -2.343797               0.000000
 MO|    182              -0.074116              -2.016807               0.000000
 MO|    183              -0.073882              -2.010433               0.000000
 MO|    184              -0.056022              -1.524445               0.000000
 MO|    185              -0.049691              -1.352161               0.000000
 MO|    186              -0.043841              -1.192979               0.000000
 MO|    187              -0.042023              -1.143513               0.000000
 MO|    188              -0.034653              -0.942947               0.000000
 MO|    189              -0.023070              -0.627762               0.000000
 MO|    190              -0.022554              -0.613712               0.000000
 MO|    191              -0.013607              -0.370272               0.000000
 MO|    192              -0.011720              -0.318930               0.000000
 MO|    193              -0.005211              -0.141801               0.000000
 MO|    194              -0.004544              -0.123662               0.000000
 MO|    195              -0.001999              -0.054402               0.000000
 MO|    196               0.001579               0.042962               0.000000
 MO|    197               0.003242               0.088221               0.000000
 MO|    198               0.007059               0.192085               0.000000
 MO|    199               0.008622               0.234629               0.000000
 MO|    200               0.011621               0.316227               0.000000
 MO|    201               0.015648               0.425811               0.000000
 MO|    202               0.022532               0.613125               0.000000
 MO|    203               0.026615               0.724225               0.000000
 MO|    204               0.026877               0.731360               0.000000
 MO|    205               0.035482               0.965506               0.000000
 MO|    206               0.037944               1.032511               0.000000
 MO|    207               0.038615               1.050760               0.000000
 MO|    208               0.038937               1.059527               0.000000
 MO|    209               0.047584               1.294822               0.000000
 MO|    210               0.053579               1.457970               0.000000
 MO|    211               0.053927               1.467432               0.000000
 MO|    212               0.054212               1.475170               0.000000
 MO|    213               0.056276               1.531358               0.000000
 MO|    214               0.059713               1.624874               0.000000
 MO|    215               0.064499               1.755120               0.000000
 MO|    216               0.065321               1.777485               0.000000
 MO|    217               0.070638               1.922155               0.000000
 MO|    218               0.072591               1.975302               0.000000
 MO|    219               0.073932               2.011795               0.000000
 MO|    220               0.075428               2.052491               0.000000
 MO|    221               0.076921               2.093117               0.000000
 MO|    222               0.078307               2.130845               0.000000
 MO|    223               0.086164               2.344645               0.000000
 MO|    224               0.089928               2.447062               0.000000
 MO|    225               0.090778               2.470193               0.000000
 MO|    226               0.090807               2.470985               0.000000
 MO|    227               0.091482               2.489353               0.000000
 MO|    228               0.095176               2.589862               0.000000
 MO|    229               0.098698               2.685701               0.000000
 MO|    230               0.099879               2.717859               0.000000
 MO|    231               0.102492               2.788947               0.000000
 MO|    232               0.106890               2.908632               0.000000
 MO|    233               0.108759               2.959475               0.000000
 MO|    234               0.114274               3.109557               0.000000
 MO|    235               0.114923               3.127202               0.000000
 MO|    236               0.119562               3.253455               0.000000
 MO|    237               0.121505               3.306308               0.000000
 MO|    238               0.123494               3.360442               0.000000
 MO|    239               0.124715               3.393667               0.000000
 MO|    240               0.129202               3.515754               0.000000
 MO|    241               0.131092               3.567206               0.000000
 MO|    242               0.135887               3.697666               0.000000
 MO|    243               0.141101               3.839546               0.000000
 MO|    244               0.146777               3.994012               0.000000
 MO|    245               0.146885               3.996937               0.000000
 MO|    246               0.148940               4.052850               0.000000
 MO|    247               0.151644               4.126450               0.000000
 MO|    248               0.152347               4.145577               0.000000
 MO|    249               0.153916               4.188254               0.000000
 MO|    250               0.158365               4.309340               0.000000
 MO|    251               0.158602               4.315787               0.000000
 MO|    252               0.159647               4.344222               0.000000
 MO|    253               0.160959               4.379928               0.000000
 MO|    254               0.163388               4.446023               0.000000
 MO|    255               0.165133               4.493484               0.000000
 MO|    256               0.165754               4.510402               0.000000
 MO|    257               0.173961               4.733732               0.000000
 MO|    258               0.176582               4.805033               0.000000
 MO|    259               0.176685               4.807837               0.000000
 MO|    260               0.184301               5.015090               0.000000
 MO|    261               0.186941               5.086919               0.000000
 MO|    262               0.187104               5.091354               0.000000
 MO|    263               0.189985               5.169759               0.000000
 MO|    264               0.191183               5.202343               0.000000
 MO|    265               0.192417               5.235922               0.000000
 MO|    266               0.192751               5.245011               0.000000
 MO|    267               0.196357               5.343143               0.000000
 MO|    268               0.197486               5.373871               0.000000
 MO|    269               0.200902               5.466835               0.000000
 MO|    270               0.202564               5.512048               0.000000
 MO|    271               0.205350               5.587862               0.000000
 MO|    272               0.205556               5.593455               0.000000
 MO|    273               0.205561               5.593602               0.000000
 MO|    274               0.208370               5.670025               0.000000
 MO|    275               0.210866               5.737951               0.000000
 MO|    276               0.211760               5.762272               0.000000
 MO|    277               0.217842               5.927773               0.000000
 MO|    278               0.219127               5.962753               0.000000
 MO|    279               0.219175               5.964065               0.000000
 MO|    280               0.221585               6.029628               0.000000
 MO| Sum:                                                             360.000000
 MO| E(Fermi):           -0.096230 a.u.         -2.618559 eV
 MO| Band gap:            0.070108 a.u.          1.907734 eV

    14 Broy./Diag. 0.40E+00    0.4     0.00031173     -2121.4816566504 -1.66E-02
  Decoupling Energy:                                              -0.0000218261

 MO| EIGENVALUES AND OCCUPATION NUMBERS AFTER SCF STEP 14
 MO|
 MO|  Index      Eigenvalue [a.u.]        Eigenvalue [eV]             Occupation
 MO|      1              -9.798423            -266.628641               2.000000
 MO|      2              -9.798422            -266.628630               2.000000
 MO|      3              -9.798408            -266.628242               2.000000
 MO|      4              -9.798408            -266.628239               2.000000
 MO|      5              -9.797271            -266.597307               2.000000
 MO|      6              -9.797271            -266.597295               2.000000
 MO|      7              -9.795819            -266.557797               2.000000
 MO|      8              -9.795815            -266.557693               2.000000
 MO|      9              -9.795812            -266.557590               2.000000
 MO|     10              -9.795780            -266.556717               2.000000
 MO|     11              -9.795776            -266.556632               2.000000
 MO|     12              -9.795654            -266.553288               2.000000
 MO|     13              -9.795559            -266.550705               2.000000
 MO|     14              -9.795558            -266.550696               2.000000
 MO|     15              -9.795515            -266.549531               2.000000
 MO|     16              -9.795515            -266.549525               2.000000
 MO|     17              -9.795256            -266.542470               2.000000
 MO|     18              -9.795208            -266.541155               2.000000
 MO|     19              -9.795172            -266.540183               2.000000
 MO|     20              -9.795158            -266.539814               2.000000
 MO|     21              -9.795052            -266.536909               2.000000
 MO|     22              -9.795039            -266.536575               2.000000
 MO|     23              -9.795027            -266.536231               2.000000
 MO|     24              -9.795023            -266.536142               2.000000
 MO|     25              -9.794858            -266.531635               2.000000
 MO|     26              -9.794855            -266.531561               2.000000
 MO|     27              -9.794810            -266.530337               2.000000
 MO|     28              -9.794749            -266.528681               2.000000
 MO|     29              -9.794746            -266.528585               2.000000
 MO|     30              -9.794695            -266.527208               2.000000
 MO|     31              -9.794287            -266.516097               2.000000
 MO|     32              -9.794275            -266.515776               2.000000
 MO|     33              -9.794273            -266.515715               2.000000
 MO|     34              -9.794260            -266.515363               2.000000
 MO|     35              -9.787406            -266.328872               2.000000
 MO|     36              -9.787406            -266.328853               2.000000
 MO|     37              -9.787219            -266.323771               2.000000
 MO|     38              -9.787219            -266.323769               2.000000
 MO|     39              -9.787192            -266.323040               2.000000
 MO|     40              -9.787192            -266.323036               2.000000
 MO|     41              -9.785820            -266.285703               2.000000
 MO|     42              -9.785819            -266.285683               2.000000
 MO|     43              -9.785818            -266.285656               2.000000
 MO|     44              -9.785817            -266.285631               2.000000
 MO|     45              -9.784050            -266.237531               2.000000
 MO|     46              -9.784047            -266.237454               2.000000
 MO|     47              -9.784023            -266.236817               2.000000
 MO|     48              -9.784019            -266.236705               2.000000
 MO|     49              -9.783689            -266.227708               2.000000
 MO|     50              -9.783677            -266.227382               2.000000
 MO|     51              -9.783607            -266.225478               2.000000
 MO|     52              -9.783601            -266.225311               2.000000
 MO|     53              -9.781081            -266.156761               2.000000
 MO|     54              -9.781081            -266.156754               2.000000
 MO|     55              -9.781081            -266.156749               2.000000
 MO|     56              -9.781081            -266.156746               2.000000
 MO|     57              -0.842652             -22.929714               2.000000
 MO|     58              -0.835046             -22.722752               2.000000
 MO|     59              -0.821943             -22.366214               2.000000
 MO|     60              -0.810687             -22.059911               2.000000
 MO|     61              -0.804274             -21.885409               2.000000
 MO|     62              -0.801962             -21.822500               2.000000
 MO|     63              -0.788130             -21.446111               2.000000
 MO|     64              -0.775918             -21.113800               2.000000
 MO|     65              -0.772872             -21.030906               2.000000
 MO|     66              -0.758807             -20.648199               2.000000
 MO|     67              -0.751550             -20.450720               2.000000
 MO|     68              -0.748995             -20.381195               2.000000
 MO|     69              -0.741117             -20.166830               2.000000
 MO|     70              -0.737121             -20.058081               2.000000
 MO|     71              -0.724727             -19.720837               2.000000
 MO|     72              -0.712415             -19.385809               2.000000
 MO|     73              -0.709348             -19.302335               2.000000
 MO|     74              -0.694162             -18.889109               2.000000
 MO|     75              -0.686807             -18.688972               2.000000
 MO|     76              -0.685928             -18.665058               2.000000
 MO|     77              -0.679822             -18.498906               2.000000
 MO|     78              -0.677919             -18.447117               2.000000
 MO|     79              -0.671415             -18.270141               2.000000
 MO|     80              -0.669781             -18.225672               2.000000
 MO|     81              -0.662200             -18.019369               2.000000
 MO|     82              -0.641174             -17.447233               2.000000
 MO|     83              -0.640144             -17.419207               2.000000
 MO|     84              -0.615128             -16.738487               2.000000
 MO|     85              -0.614481             -16.720884               2.000000
 MO|     86              -0.600568             -16.342274               2.000000
 MO|     87              -0.595107             -16.193688               2.000000
 MO|     88              -0.583366             -15.874198               2.000000
 MO|     89              -0.582124             -15.840391               2.000000
 MO|     90              -0.579720             -15.774991               2.000000
 MO|     91              -0.575031             -15.647390               2.000000
 MO|     92              -0.573210             -15.597838               2.000000
 MO|     93              -0.563430             -15.331722               2.000000
 MO|     94              -0.547962             -14.910805               2.000000
 MO|     95              -0.546213             -14.863207               2.000000
 MO|     96              -0.522992             -14.231332               2.000000
 MO|     97              -0.521668             -14.195302               2.000000
 MO|     98              -0.516714             -14.060494               2.000000
 MO|     99              -0.515905             -14.038485               2.000000
 MO|    100              -0.501786             -13.654287               2.000000
 MO|    101              -0.496601             -13.513188               2.000000
 MO|    102              -0.495057             -13.471182               2.000000
 MO|    103              -0.490354             -13.343205               2.000000
 MO|    104              -0.479906             -13.058907               2.000000
 MO|    105              -0.474277             -12.905725               2.000000
 MO|    106              -0.469993             -12.789168               2.000000
 MO|    107              -0.458953             -12.488739               2.000000
 MO|    108              -0.454940             -12.379541               2.000000
 MO|    109              -0.449000             -12.217907               2.000000
 MO|    110              -0.438474             -11.931471               2.000000
 MO|    111              -0.433860             -11.805927               2.000000
 MO|    112              -0.432558             -11.770509               2.000000
 MO|    113              -0.428167             -11.651006               2.000000
 MO|    114              -0.426111             -11.595064               2.000000
 MO|    115              -0.420448             -11.440962               2.000000
 MO|    116              -0.410427             -11.168290               2.000000
 MO|    117              -0.410406             -11.167708               2.000000
 MO|    118              -0.407488             -11.088316               2.000000
 MO|    119              -0.406646             -11.065406               2.000000
 MO|    120              -0.405702             -11.039704               2.000000
 MO|    121              -0.405537             -11.035213               2.000000
 MO|    122              -0.399367             -10.867330               2.000000
 MO|    123              -0.393805             -10.715972               2.000000
 MO|    124              -0.393760             -10.714766               2.000000
 MO|    125              -0.390281             -10.620097               2.000000
 MO|    126              -0.384645             -10.466729               2.000000
 MO|    127              -0.378013             -10.286260               2.000000
 MO|    128              -0.374650             -10.194744               2.000000
 MO|    129              -0.373569             -10.165327               2.000000
 MO|    130              -0.372353             -10.132239               2.000000
 MO|    131              -0.371604             -10.111863               2.000000
 MO|    132              -0.366286              -9.967138               2.000000
 MO|    133              -0.365664              -9.950229               2.000000
 MO|    134              -0.365161              -9.936524               2.000000
 MO|    135              -0.360469              -9.808851               2.000000
 MO|    136              -0.359465              -9.781529               2.000000
 MO|    137              -0.354768              -9.653716               2.000000
 MO|    138              -0.353414              -9.616893               2.000000
 MO|    139              -0.349195              -9.502084               2.000000
 MO|    140              -0.349193              -9.502036               2.000000
 MO|    141              -0.345732              -9.407856               2.000000
 MO|    142              -0.343900              -9.357990               2.000000
 MO|    143              -0.342593              -9.322433               2.000000
 MO|    144              -0.340473              -9.264747               2.000000
 MO|    145              -0.337791              -9.191758               2.000000
 MO|    146              -0.332661              -9.052153               2.000000
 MO|    147              -0.326430              -8.882620               2.000000
 MO|    148              -0.318545              -8.668043               2.000000
 MO|    149              -0.317835              -8.648739               2.000000
 MO|    150              -0.316075              -8.600842               2.000000
 MO|    151              -0.312169              -8.494544               2.000000
 MO|    152              -0.307100              -8.356609               2.000000
 MO|    153              -0.305327              -8.308380               2.000000
 MO|    154              -0.304058              -8.273849               2.000000
 MO|    155              -0.301668              -8.208812               2.000000
 MO|    156              -0.301535              -8.205179               2.000000
 MO|    157              -0.297564              -8.097115               2.000000
 MO|    158              -0.291806              -7.940441               2.000000
 MO|    159              -0.290097              -7.893935               2.000000
 MO|    160              -0.286243              -7.789059               2.000000
 MO|    161              -0.277124              -7.540936               2.000000
 MO|    162              -0.276821              -7.532670               2.000000
 MO|    163              -0.266034              -7.239148               2.000000
 MO|    164              -0.265193              -7.216279               2.000000
 MO|    165              -0.263777              -7.177729               2.000000
 MO|    166              -0.260339              -7.084190               2.000000
 MO|    167              -0.251479              -6.843105               2.000000
 MO|    168              -0.244710              -6.658892               2.000000
 MO|    169              -0.233105              -6.343103               2.000000
 MO|    170              -0.231886              -6.309938               2.000000
 MO|    171              -0.230093              -6.261161               2.000000
 MO|    172              -0.227205              -6.182576               2.000000
 MO|    173              -0.223792              -6.089703               2.000000
 MO|    174              -0.219750              -5.979690               2.000000
 MO|    175              -0.208439              -5.671924               2.000000
 MO|    176              -0.207806              -5.654688               2.000000
 MO|    177              -0.193009              -5.252038               2.000000
 MO|    178              -0.176679              -4.807670               2.000000
 MO|    179              -0.169630              -4.615855               2.000000
 MO|    180              -0.156016              -4.245410               2.000000
 MO|    181              -0.085907              -2.337640               0.000000
 MO|    182              -0.073894              -2.010749               0.000000
 MO|    183              -0.073664              -2.004496               0.000000
 MO|    184              -0.055810              -1.518671               0.000000
 MO|    185              -0.049471              -1.346169               0.000000
 MO|    186              -0.043612              -1.186739               0.000000
 MO|    187              -0.041807              -1.137636               0.000000
 MO|    188              -0.034434              -0.936988               0.000000
 MO|    189              -0.022856              -0.621933               0.000000
 MO|    190              -0.022335              -0.607777               0.000000
 MO|    191              -0.013384              -0.364196               0.000000
 MO|    192              -0.011497              -0.312842               0.000000
 MO|    193              -0.005091              -0.138539               0.000000
 MO|    194              -0.004446              -0.120978               0.000000
 MO|    195              -0.001784              -0.048544               0.000000
 MO|    196               0.001818               0.049460               0.000000
 MO|    197               0.003485               0.094819               0.000000
 MO|    198               0.007205               0.196052               0.000000
 MO|    199               0.008832               0.240328               0.000000
 MO|    200               0.011820               0.321647               0.000000
 MO|    201               0.015769               0.429108               0.000000
 MO|    202               0.022685               0.617293               0.000000
 MO|    203               0.026747               0.727836               0.000000
 MO|    204               0.027097               0.737356               0.000000
 MO|    205               0.035609               0.968959               0.000000
 MO|    206               0.038135               1.037702               0.000000
 MO|    207               0.038832               1.056671               0.000000
 MO|    208               0.039079               1.063396               0.000000
 MO|    209               0.047750               1.299350               0.000000
 MO|    210               0.053798               1.463916               0.000000
 MO|    211               0.054014               1.469801               0.000000
 MO|    212               0.054421               1.480882               0.000000
 MO|    213               0.056503               1.537533               0.000000
 MO|    214               0.059922               1.630573               0.000000
 MO|    215               0.064755               1.762065               0.000000
 MO|    216               0.065432               1.780489               0.000000
 MO|    217               0.070906               1.929456               0.000000
 MO|    218               0.072765               1.980025               0.000000
 MO|    219               0.074099               2.016340               0.000000
 MO|    220               0.075594               2.057023               0.000000
 MO|    221               0.077149               2.099337               0.000000
 MO|    222               0.078565               2.137855               0.000000
 MO|    223               0.086316               2.348769               0.000000
 MO|    224               0.090084               2.451313               0.000000
 MO|    225               0.090943               2.474680               0.000000
 MO|    226               0.091047               2.477526               0.000000
 MO|    227               0.091819               2.498510               0.000000
 MO|    228               0.095520               2.599239               0.000000
 MO|    229               0.098974               2.693213               0.000000
 MO|    230               0.100057               2.722678               0.000000
 MO|    231               0.102699               2.794589               0.000000
 MO|    232               0.107104               2.914438               0.000000
 MO|    233               0.108969               2.965200               0.000000
 MO|    234               0.114525               3.116372               0.000000
 MO|    235               0.115141               3.133137               0.000000
 MO|    236               0.119810               3.260191               0.000000
 MO|    237               0.121696               3.311513               0.000000
 MO|    238               0.123684               3.365617               0.000000
 MO|    239               0.124899               3.398677               0.000000
 MO|    240               0.129424               3.521818               0.000000
 MO|    241               0.131307               3.573042               0.000000
 MO|    242               0.136112               3.703809               0.000000
 MO|    243               0.141317               3.845439               0.000000
 MO|    244               0.147041               4.001184               0.000000
 MO|    245               0.147105               4.002921               0.000000
 MO|    246               0.149126               4.057929               0.000000
 MO|    247               0.151841               4.131792               0.000000
 MO|    248               0.152532               4.150596               0.000000
 MO|    249               0.154228               4.196755               0.000000
 MO|    250               0.158569               4.314871               0.000000
 MO|    251               0.158820               4.321703               0.000000
 MO|    252               0.159777               4.347752               0.000000
 MO|    253               0.161165               4.385521               0.000000
 MO|    254               0.163510               4.449343               0.000000
 MO|    255               0.165411               4.501070               0.000000
 MO|    256               0.165963               4.516086               0.000000
 MO|    257               0.174140               4.738599               0.000000
 MO|    258               0.176720               4.808794               0.000000
 MO|    259               0.176872               4.812934               0.000000
 MO|    260               0.184525               5.021192               0.000000
 MO|    261               0.187134               5.092164               0.000000
 MO|    262               0.187298               5.096639               0.000000
 MO|    263               0.190207               5.175804               0.000000
 MO|    264               0.191339               5.206605               0.000000
 MO|    265               0.192589               5.240608               0.000000
 MO|    266               0.192881               5.248546               0.000000
 MO|    267               0.196545               5.348258               0.000000
 MO|    268               0.197638               5.377998               0.000000
 MO|    269               0.201123               5.472823               0.000000
 MO|    270               0.202741               5.516851               0.000000
 MO|    271               0.205588               5.594323               0.000000
 MO|    272               0.205764               5.599113               0.000000
 MO|    273               0.205782               5.599615               0.000000
 MO|    274               0.208583               5.675839               0.000000
 MO|    275               0.211052               5.743023               0.000000
 MO|    276               0.211938               5.767129               0.000000
 MO|    277               0.218005               5.932214               0.000000
 MO|    278               0.219316               5.967887               0.000000
 MO|    279               0.219333               5.968348               0.000000
 MO|    280               0.221814               6.035853               0.000000
 MO| Sum:                                                             360.000000
 MO| E(Fermi):           -0.096004 a.u.         -2.612402 eV
 MO| Band gap:            0.070109 a.u.          1.907770 eV

    15 Broy./Diag. 0.40E+00    0.4     0.00010664     -2121.4846856645 -3.03E-03
  Decoupling Energy:                                              -0.0000216773

 MO| EIGENVALUES AND OCCUPATION NUMBERS AFTER SCF STEP 15
 MO|
 MO|  Index      Eigenvalue [a.u.]        Eigenvalue [eV]             Occupation
 MO|      1              -9.798458            -266.629589               2.000000
 MO|      2              -9.798457            -266.629579               2.000000
 MO|      3              -9.798443            -266.629191               2.000000
 MO|      4              -9.798443            -266.629188               2.000000
 MO|      5              -9.797301            -266.598122               2.000000
 MO|      6              -9.797301            -266.598110               2.000000
 MO|      7              -9.795841            -266.558379               2.000000
 MO|      8              -9.795835            -266.558232               2.000000
 MO|      9              -9.795831            -266.558130               2.000000
 MO|     10              -9.795799            -266.557246               2.000000
 MO|     11              -9.795796            -266.557162               2.000000
 MO|     12              -9.795675            -266.553874               2.000000
 MO|     13              -9.795577            -266.551216               2.000000
 MO|     14              -9.795577            -266.551206               2.000000
 MO|     15              -9.795535            -266.550050               2.000000
 MO|     16              -9.795534            -266.550044               2.000000
 MO|     17              -9.795278            -266.543083               2.000000
 MO|     18              -9.795230            -266.541764               2.000000
 MO|     19              -9.795192            -266.540729               2.000000
 MO|     20              -9.795178            -266.540357               2.000000
 MO|     21              -9.795075            -266.537552               2.000000
 MO|     22              -9.795063            -266.537219               2.000000
 MO|     23              -9.795050            -266.536859               2.000000
 MO|     24              -9.795047            -266.536776               2.000000
 MO|     25              -9.794875            -266.532094               2.000000
 MO|     26              -9.794868            -266.531925               2.000000
 MO|     27              -9.794833            -266.530966               2.000000
 MO|     28              -9.794773            -266.529324               2.000000
 MO|     29              -9.794764            -266.529069               2.000000
 MO|     30              -9.794717            -266.527792               2.000000
 MO|     31              -9.794303            -266.516547               2.000000
 MO|     32              -9.794292            -266.516226               2.000000
 MO|     33              -9.794289            -266.516166               2.000000
 MO|     34              -9.794276            -266.515814               2.000000
 MO|     35              -9.787422            -266.329305               2.000000
 MO|     36              -9.787422            -266.329287               2.000000
 MO|     37              -9.787219            -266.323773               2.000000
 MO|     38              -9.787219            -266.323771               2.000000
 MO|     39              -9.787194            -266.323081               2.000000
 MO|     40              -9.787193            -266.323076               2.000000
 MO|     41              -9.785841            -266.286279               2.000000
 MO|     42              -9.785840            -266.286259               2.000000
 MO|     43              -9.785839            -266.286233               2.000000
 MO|     44              -9.785838            -266.286207               2.000000
 MO|     45              -9.784069            -266.238061               2.000000
 MO|     46              -9.784066            -266.237985               2.000000
 MO|     47              -9.784043            -266.237353               2.000000
 MO|     48              -9.784039            -266.237240               2.000000
 MO|     49              -9.783706            -266.228167               2.000000
 MO|     50              -9.783694            -266.227843               2.000000
 MO|     51              -9.783623            -266.225932               2.000000
 MO|     52              -9.783617            -266.225765               2.000000
 MO|     53              -9.781086            -266.156881               2.000000
 MO|     54              -9.781086            -266.156874               2.000000
 MO|     55              -9.781085            -266.156870               2.000000
 MO|     56              -9.781085            -266.156867               2.000000
 MO|     57              -0.842650             -22.929660               2.000000
 MO|     58              -0.835042             -22.722655               2.000000
 MO|     59              -0.821941             -22.366144               2.000000
 MO|     60              -0.810686             -22.059893               2.000000
 MO|     61              -0.804271             -21.885334               2.000000
 MO|     62              -0.801959             -21.822423               2.000000
 MO|     63              -0.788127             -21.446037               2.000000
 MO|     64              -0.775917             -21.113769               2.000000
 MO|     65              -0.772869             -21.030847               2.000000
 MO|     66              -0.758808             -20.648223               2.000000
 MO|     67              -0.751549             -20.450680               2.000000
 MO|     68              -0.748995             -20.381200               2.000000
 MO|     69              -0.741116             -20.166794               2.000000
 MO|     70              -0.737121             -20.058076               2.000000
 MO|     71              -0.724728             -19.720849               2.000000
 MO|     72              -0.712417             -19.385846               2.000000
 MO|     73              -0.709347             -19.302325               2.000000
 MO|     74              -0.694167             -18.889245               2.000000
 MO|     75              -0.686808             -18.688986               2.000000
 MO|     76              -0.685931             -18.665128               2.000000
 MO|     77              -0.679824             -18.498958               2.000000
 MO|     78              -0.677921             -18.447172               2.000000
 MO|     79              -0.671416             -18.270152               2.000000
 MO|     80              -0.669786             -18.225798               2.000000
 MO|     81              -0.662200             -18.019380               2.000000
 MO|     82              -0.641174             -17.447236               2.000000
 MO|     83              -0.640149             -17.419344               2.000000
 MO|     84              -0.615133             -16.738620               2.000000
 MO|     85              -0.614484             -16.720973               2.000000
 MO|     86              -0.600569             -16.342315               2.000000
 MO|     87              -0.595112             -16.193828               2.000000
 MO|     88              -0.583371             -15.874344               2.000000
 MO|     89              -0.582130             -15.840551               2.000000
 MO|     90              -0.579724             -15.775099               2.000000
 MO|     91              -0.575036             -15.647518               2.000000
 MO|     92              -0.573217             -15.598020               2.000000
 MO|     93              -0.563433             -15.331803               2.000000
 MO|     94              -0.547967             -14.910932               2.000000
 MO|     95              -0.546216             -14.863295               2.000000
 MO|     96              -0.522998             -14.231500               2.000000
 MO|     97              -0.521677             -14.195541               2.000000
 MO|     98              -0.516718             -14.060622               2.000000
 MO|     99              -0.515911             -14.038657               2.000000
 MO|    100              -0.501794             -13.654517               2.000000
 MO|    101              -0.496609             -13.513425               2.000000
 MO|    102              -0.495064             -13.471369               2.000000
 MO|    103              -0.490358             -13.343309               2.000000
 MO|    104              -0.479912             -13.059057               2.000000
 MO|    105              -0.474285             -12.905961               2.000000
 MO|    106              -0.469999             -12.789322               2.000000
 MO|    107              -0.458956             -12.488818               2.000000
 MO|    108              -0.454945             -12.379670               2.000000
 MO|    109              -0.449008             -12.218138               2.000000
 MO|    110              -0.438484             -11.931767               2.000000
 MO|    111              -0.433869             -11.806163               2.000000
 MO|    112              -0.432565             -11.770689               2.000000
 MO|    113              -0.428172             -11.651161               2.000000
 MO|    114              -0.426117             -11.595234               2.000000
 MO|    115              -0.420456             -11.441201               2.000000
 MO|    116              -0.410433             -11.168442               2.000000
 MO|    117              -0.410411             -11.167861               2.000000
 MO|    118              -0.407496             -11.088538               2.000000
 MO|    119              -0.406635             -11.065114               2.000000
 MO|    120              -0.405692             -11.039442               2.000000
 MO|    121              -0.405544             -11.035401               2.000000
 MO|    122              -0.399373             -10.867502               2.000000
 MO|    123              -0.393810             -10.716111               2.000000
 MO|    124              -0.393771             -10.715050               2.000000
 MO|    125              -0.390267             -10.619719               2.000000
 MO|    126              -0.384652             -10.466916               2.000000
 MO|    127              -0.378018             -10.286388               2.000000
 MO|    128              -0.374655             -10.194874               2.000000
 MO|    129              -0.373576             -10.165533               2.000000
 MO|    130              -0.372356             -10.132326               2.000000
 MO|    131              -0.371590             -10.111480               2.000000
 MO|    132              -0.366293              -9.967328               2.000000
 MO|    133              -0.365672              -9.950450               2.000000
 MO|    134              -0.365172              -9.936826               2.000000
 MO|    135              -0.360476              -9.809048               2.000000
 MO|    136              -0.359451              -9.781150               2.000000
 MO|    137              -0.354775              -9.653913               2.000000
 MO|    138              -0.353422              -9.617112               2.000000
 MO|    139              -0.349206              -9.502375               2.000000
 MO|    140              -0.349180              -9.501678               2.000000
 MO|    141              -0.345720              -9.407508               2.000000
 MO|    142              -0.343908              -9.358209               2.000000
 MO|    143              -0.342602              -9.322670               2.000000
 MO|    144              -0.340481              -9.264955               2.000000
 MO|    145              -0.337796              -9.191897               2.000000
 MO|    146              -0.332647              -9.051776               2.000000
 MO|    147              -0.326440              -8.882882               2.000000
 MO|    148              -0.318533              -8.667713               2.000000
 MO|    149              -0.317847              -8.649050               2.000000
 MO|    150              -0.316082              -8.601028               2.000000
 MO|    151              -0.312156              -8.494196               2.000000
 MO|    152              -0.307109              -8.356860               2.000000
 MO|    153              -0.305335              -8.308575               2.000000
 MO|    154              -0.304067              -8.274095               2.000000
 MO|    155              -0.301656              -8.208466               2.000000
 MO|    156              -0.301542              -8.205374               2.000000
 MO|    157              -0.297577              -8.097479               2.000000
 MO|    158              -0.291793              -7.940098               2.000000
 MO|    159              -0.290085              -7.893622               2.000000
 MO|    160              -0.286252              -7.789305               2.000000
 MO|    161              -0.277131              -7.541118               2.000000
 MO|    162              -0.276807              -7.532314               2.000000
 MO|    163              -0.266042              -7.239378               2.000000
 MO|    164              -0.265181              -7.215931               2.000000
 MO|    165              -0.263766              -7.177434               2.000000
 MO|    166              -0.260347              -7.084406               2.000000
 MO|    167              -0.251490              -6.843379               2.000000
 MO|    168              -0.244697              -6.658543               2.000000
 MO|    169              -0.233093              -6.342791               2.000000
 MO|    170              -0.231872              -6.309563               2.000000
 MO|    171              -0.230083              -6.260870               2.000000
 MO|    172              -0.227195              -6.182279               2.000000
 MO|    173              -0.223782              -6.089429               2.000000
 MO|    174              -0.219740              -5.979418               2.000000
 MO|    175              -0.208426              -5.671550               2.000000
 MO|    176              -0.207793              -5.654327               2.000000
 MO|    177              -0.193000              -5.251787               2.000000
 MO|    178              -0.176666              -4.807332               2.000000
 MO|    179              -0.169620              -4.615600               2.000000
 MO|    180              -0.156006              -4.245143               2.000000
 MO|    181              -0.085897              -2.337372               0.000000
 MO|    182              -0.073881              -2.010398               0.000000
 MO|    183              -0.073650              -2.004108               0.000000
 MO|    184              -0.055792              -1.518184               0.000000
 MO|    185              -0.049454              -1.345710               0.000000
 MO|    186              -0.043595              -1.186279               0.000000
 MO|    187              -0.041793              -1.137245               0.000000
 MO|    188              -0.034420              -0.936616               0.000000
 MO|    189              -0.022838              -0.621459               0.000000
 MO|    190              -0.022324              -0.607463               0.000000
 MO|    191              -0.013363              -0.363631               0.000000
 MO|    192              -0.011488              -0.312599               0.000000
 MO|    193              -0.004996              -0.135961               0.000000
 MO|    194              -0.004352              -0.118428               0.000000
 MO|    195              -0.001767              -0.048096               0.000000
 MO|    196               0.001929               0.052481               0.000000
 MO|    197               0.003617               0.098432               0.000000
 MO|    198               0.007271               0.197851               0.000000
 MO|    199               0.008863               0.241172               0.000000
 MO|    200               0.011926               0.324531               0.000000
 MO|    201               0.015837               0.430956               0.000000
 MO|    202               0.022766               0.619492               0.000000
 MO|    203               0.026833               0.730171               0.000000
 MO|    204               0.027113               0.737781               0.000000
 MO|    205               0.035680               0.970902               0.000000
 MO|    206               0.038221               1.040044               0.000000
 MO|    207               0.038856               1.057314               0.000000
 MO|    208               0.039173               1.065942               0.000000
 MO|    209               0.047847               1.301988               0.000000
 MO|    210               0.053948               1.467987               0.000000
 MO|    211               0.054089               1.471833               0.000000
 MO|    212               0.054528               1.483771               0.000000
 MO|    213               0.056644               1.541362               0.000000
 MO|    214               0.059978               1.632093               0.000000
 MO|    215               0.064894               1.765847               0.000000
 MO|    216               0.065501               1.782385               0.000000
 MO|    217               0.071056               1.933528               0.000000
 MO|    218               0.072859               1.982589               0.000000
 MO|    219               0.074188               2.018757               0.000000
 MO|    220               0.075654               2.058647               0.000000
 MO|    221               0.077230               2.101530               0.000000
 MO|    222               0.078668               2.140674               0.000000
 MO|    223               0.086392               2.350844               0.000000
 MO|    224               0.090139               2.452798               0.000000
 MO|    225               0.091020               2.476780               0.000000
 MO|    226               0.091130               2.479769               0.000000
 MO|    227               0.091957               2.502274               0.000000
 MO|    228               0.095671               2.603328               0.000000
 MO|    229               0.099084               2.696216               0.000000
 MO|    230               0.100146               2.725113               0.000000
 MO|    231               0.102829               2.798106               0.000000
 MO|    232               0.107209               2.917318               0.000000
 MO|    233               0.109049               2.967383               0.000000
 MO|    234               0.114639               3.119487               0.000000
 MO|    235               0.115230               3.135563               0.000000
 MO|    236               0.119893               3.262448               0.000000
 MO|    237               0.121720               3.312166               0.000000
 MO|    238               0.123796               3.368666               0.000000
 MO|    239               0.125017               3.401891               0.000000
 MO|    240               0.129522               3.524464               0.000000
 MO|    241               0.131398               3.575528               0.000000
 MO|    242               0.136203               3.706263               0.000000
 MO|    243               0.141417               3.848160               0.000000
 MO|    244               0.147171               4.004731               0.000000
 MO|    245               0.147219               4.006023               0.000000
 MO|    246               0.149251               4.061325               0.000000
 MO|    247               0.151902               4.133463               0.000000
 MO|    248               0.152598               4.152406               0.000000
 MO|    249               0.154430               4.202258               0.000000
 MO|    250               0.158714               4.318831               0.000000
 MO|    251               0.158844               4.322354               0.000000
 MO|    252               0.159826               4.349084               0.000000
 MO|    253               0.161243               4.387643               0.000000
 MO|    254               0.163556               4.450590               0.000000
 MO|    255               0.165535               4.504430               0.000000
 MO|    256               0.166162               4.521511               0.000000
 MO|    257               0.174216               4.740655               0.000000
 MO|    258               0.176815               4.811387               0.000000
 MO|    259               0.176976               4.815767               0.000000
 MO|    260               0.184536               5.021473               0.000000
 MO|    261               0.187162               5.092936               0.000000
 MO|    262               0.187312               5.097014               0.000000
 MO|    263               0.190241               5.176726               0.000000
 MO|    264               0.191434               5.209173               0.000000
 MO|    265               0.192682               5.243147               0.000000
 MO|    266               0.192978               5.251193               0.000000
 MO|    267               0.196595               5.349610               0.000000
 MO|    268               0.197704               5.379807               0.000000
 MO|    269               0.201158               5.473794               0.000000
 MO|    270               0.202819               5.518980               0.000000
 MO|    271               0.205693               5.597178               0.000000
 MO|    272               0.205816               5.600548               0.000000
 MO|    273               0.205885               5.602415               0.000000
 MO|    274               0.208638               5.677338               0.000000
 MO|    275               0.211081               5.743803               0.000000
 MO|    276               0.211977               5.768197               0.000000
 MO|    277               0.218066               5.933887               0.000000
 MO|    278               0.219383               5.969714               0.000000
 MO|    279               0.219443               5.971340               0.000000
 MO|    280               0.221880               6.037648               0.000000
 MO| Sum:                                                             360.000000
 MO| E(Fermi):           -0.095994 a.u.         -2.612134 eV
 MO| Band gap:            0.070109 a.u.          1.907771 eV

    16 Broy./Diag. 0.40E+00    0.4     0.00010482     -2121.4763716129  8.31E-03
  Decoupling Energy:                                              -0.0000212771

 MO| EIGENVALUES AND OCCUPATION NUMBERS AFTER SCF STEP 16
 MO|
 MO|  Index      Eigenvalue [a.u.]        Eigenvalue [eV]             Occupation
 MO|      1              -9.798498            -266.630679               2.000000
 MO|      2              -9.798497            -266.630668               2.000000
 MO|      3              -9.798483            -266.630280               2.000000
 MO|      4              -9.798483            -266.630277               2.000000
 MO|      5              -9.797335            -266.599039               2.000000
 MO|      6              -9.797334            -266.599027               2.000000
 MO|      7              -9.795883            -266.559523               2.000000
 MO|      8              -9.795879            -266.559421               2.000000
 MO|      9              -9.795875            -266.559325               2.000000
 MO|     10              -9.795847            -266.558548               2.000000
 MO|     11              -9.795844            -266.558464               2.000000
 MO|     12              -9.795710            -266.554827               2.000000
 MO|     13              -9.795627            -266.552560               2.000000
 MO|     14              -9.795626            -266.552550               2.000000
 MO|     15              -9.795583            -266.551378               2.000000
 MO|     16              -9.795583            -266.551372               2.000000
 MO|     17              -9.795318            -266.544160               2.000000
 MO|     18              -9.795270            -266.542854               2.000000
 MO|     19              -9.795234            -266.541861               2.000000
 MO|     20              -9.795220            -266.541496               2.000000
 MO|     21              -9.795115            -266.538625               2.000000
 MO|     22              -9.795103            -266.538310               2.000000
 MO|     23              -9.795089            -266.537934               2.000000
 MO|     24              -9.795085            -266.537822               2.000000
 MO|     25              -9.794917            -266.533243               2.000000
 MO|     26              -9.794913            -266.533142               2.000000
 MO|     27              -9.794872            -266.532014               2.000000
 MO|     28              -9.794812            -266.530399               2.000000
 MO|     29              -9.794805            -266.530212               2.000000
 MO|     30              -9.794757            -266.528890               2.000000
 MO|     31              -9.794349            -266.517795               2.000000
 MO|     32              -9.794337            -266.517474               2.000000
 MO|     33              -9.794335            -266.517411               2.000000
 MO|     34              -9.794322            -266.517059               2.000000
 MO|     35              -9.787468            -266.330541               2.000000
 MO|     36              -9.787467            -266.330523               2.000000
 MO|     37              -9.787273            -266.325238               2.000000
 MO|     38              -9.787273            -266.325236               2.000000
 MO|     39              -9.787247            -266.324526               2.000000
 MO|     40              -9.787246            -266.324521               2.000000
 MO|     41              -9.785893            -266.287690               2.000000
 MO|     42              -9.785892            -266.287670               2.000000
 MO|     43              -9.785891            -266.287644               2.000000
 MO|     44              -9.785890            -266.287618               2.000000
 MO|     45              -9.784112            -266.239233               2.000000
 MO|     46              -9.784109            -266.239156               2.000000
 MO|     47              -9.784086            -266.238521               2.000000
 MO|     48              -9.784082            -266.238409               2.000000
 MO|     49              -9.783751            -266.229392               2.000000
 MO|     50              -9.783739            -266.229066               2.000000
 MO|     51              -9.783669            -266.227160               2.000000
 MO|     52              -9.783662            -266.226993               2.000000
 MO|     53              -9.781145            -266.158504               2.000000
 MO|     54              -9.781145            -266.158497               2.000000
 MO|     55              -9.781145            -266.158493               2.000000
 MO|     56              -9.781145            -266.158490               2.000000
 MO|     57              -0.842696             -22.930924               2.000000
 MO|     58              -0.835089             -22.723928               2.000000
 MO|     59              -0.821987             -22.367393               2.000000
 MO|     60              -0.810736             -22.061254               2.000000
 MO|     61              -0.804318             -21.886595               2.000000
 MO|     62              -0.802010             -21.823810               2.000000
 MO|     63              -0.788178             -21.447424               2.000000
 MO|     64              -0.775963             -21.115027               2.000000
 MO|     65              -0.772920             -21.032230               2.000000
 MO|     66              -0.758860             -20.649640               2.000000
 MO|     67              -0.751602             -20.452120               2.000000
 MO|     68              -0.749042             -20.382467               2.000000
 MO|     69              -0.741169             -20.168224               2.000000
 MO|     70              -0.737172             -20.059458               2.000000
 MO|     71              -0.724780             -19.722280               2.000000
 MO|     72              -0.712464             -19.387126               2.000000
 MO|     73              -0.709399             -19.303735               2.000000
 MO|     74              -0.694221             -18.890713               2.000000
 MO|     75              -0.686859             -18.690392               2.000000
 MO|     76              -0.685985             -18.666589               2.000000
 MO|     77              -0.679878             -18.500418               2.000000
 MO|     78              -0.677968             -18.448461               2.000000
 MO|     79              -0.671467             -18.271553               2.000000
 MO|     80              -0.669839             -18.227240               2.000000
 MO|     81              -0.662252             -18.020800               2.000000
 MO|     82              -0.641225             -17.448622               2.000000
 MO|     83              -0.640202             -17.420783               2.000000
 MO|     84              -0.615187             -16.740098               2.000000
 MO|     85              -0.614539             -16.722466               2.000000
 MO|     86              -0.600618             -16.343654               2.000000
 MO|     87              -0.595166             -16.195299               2.000000
 MO|     88              -0.583424             -15.875787               2.000000
 MO|     89              -0.582184             -15.842045               2.000000
 MO|     90              -0.579777             -15.776528               2.000000
 MO|     91              -0.575090             -15.648992               2.000000
 MO|     92              -0.573271             -15.599504               2.000000
 MO|     93              -0.563482             -15.333119               2.000000
 MO|     94              -0.548021             -14.912415               2.000000
 MO|     95              -0.546270             -14.864771               2.000000
 MO|     96              -0.523053             -14.232996               2.000000
 MO|     97              -0.521734             -14.197101               2.000000
 MO|     98              -0.516767             -14.061943               2.000000
 MO|     99              -0.515967             -14.040183               2.000000
 MO|    100              -0.501852             -13.656074               2.000000
 MO|    101              -0.496666             -13.514966               2.000000
 MO|    102              -0.495120             -13.472905               2.000000
 MO|    103              -0.490411             -13.344762               2.000000
 MO|    104              -0.479967             -13.060577               2.000000
 MO|    105              -0.474343             -12.907542               2.000000
 MO|    106              -0.470052             -12.790755               2.000000
 MO|    107              -0.459007             -12.490225               2.000000
 MO|    108              -0.454999             -12.381166               2.000000
 MO|    109              -0.449066             -12.219695               2.000000
 MO|    110              -0.438544             -11.933394               2.000000
 MO|    111              -0.433925             -11.807708               2.000000
 MO|    112              -0.432620             -11.772192               2.000000
 MO|    113              -0.428228             -11.652675               2.000000
 MO|    114              -0.426175             -11.596801               2.000000
 MO|    115              -0.420517             -11.442845               2.000000
 MO|    116              -0.410490             -11.169990               2.000000
 MO|    117              -0.410466             -11.169358               2.000000
 MO|    118              -0.407553             -11.090068               2.000000
 MO|    119              -0.406675             -11.066188               2.000000
 MO|    120              -0.405732             -11.040516               2.000000
 MO|    121              -0.405597             -11.036864               2.000000
 MO|    122              -0.399428             -10.868977               2.000000
 MO|    123              -0.393867             -10.717662               2.000000
 MO|    124              -0.393829             -10.716633               2.000000
 MO|    125              -0.390307             -10.620786               2.000000
 MO|    126              -0.384706             -10.468387               2.000000
 MO|    127              -0.378072             -10.287875               2.000000
 MO|    128              -0.374710             -10.196382               2.000000
 MO|    129              -0.373633             -10.167070               2.000000
 MO|    130              -0.372406             -10.133696               2.000000
 MO|    131              -0.371630             -10.112576               2.000000
 MO|    132              -0.366347              -9.968807               2.000000
 MO|    133              -0.365729              -9.951982               2.000000
 MO|    134              -0.365230              -9.938408               2.000000
 MO|    135              -0.360526              -9.810417               2.000000
 MO|    136              -0.359495              -9.782355               2.000000
 MO|    137              -0.354830              -9.655404               2.000000
 MO|    138              -0.353479              -9.618660               2.000000
 MO|    139              -0.349266              -9.504024               2.000000
 MO|    140              -0.349226              -9.502913               2.000000
 MO|    141              -0.345760              -9.408613               2.000000
 MO|    142              -0.343966              -9.359803               2.000000
 MO|    143              -0.342662              -9.324297               2.000000
 MO|    144              -0.340538              -9.266500               2.000000
 MO|    145              -0.337852              -9.193407               2.000000
 MO|    146              -0.332692              -9.053014               2.000000
 MO|    147              -0.326502              -8.884563               2.000000
 MO|    148              -0.318575              -8.668874               2.000000
 MO|    149              -0.317905              -8.650643               2.000000
 MO|    150              -0.316139              -8.602592               2.000000
 MO|    151              -0.312202              -8.495445               2.000000
 MO|    152              -0.307166              -8.358404               2.000000
 MO|    153              -0.305392              -8.310126               2.000000
 MO|    154              -0.304123              -8.275605               2.000000
 MO|    155              -0.301701              -8.209710               2.000000
 MO|    156              -0.301599              -8.206927               2.000000
 MO|    157              -0.297640              -8.099194               2.000000
 MO|    158              -0.291839              -7.941348               2.000000
 MO|    159              -0.290131              -7.894871               2.000000
 MO|    160              -0.286308              -7.790825               2.000000
 MO|    161              -0.277183              -7.542541               2.000000
 MO|    162              -0.276853              -7.533540               2.000000
 MO|    163              -0.266099              -7.240911               2.000000
 MO|    164              -0.265223              -7.217078               2.000000
 MO|    165              -0.263813              -7.178715               2.000000
 MO|    166              -0.260398              -7.085782               2.000000
 MO|    167              -0.251546              -6.844905               2.000000
 MO|    168              -0.244743              -6.659802               2.000000
 MO|    169              -0.233137              -6.343973               2.000000
 MO|    170              -0.231917              -6.310773               2.000000
 MO|    171              -0.230129              -6.262117               2.000000
 MO|    172              -0.227241              -6.183542               2.000000
 MO|    173              -0.223829              -6.090707               2.000000
 MO|    174              -0.219785              -5.980652               2.000000
 MO|    175              -0.208471              -5.672784               2.000000
 MO|    176              -0.207837              -5.655540               2.000000
 MO|    177              -0.193047              -5.253065               2.000000
 MO|    178              -0.176712              -4.808566               2.000000
 MO|    179              -0.169666              -4.616854               2.000000
 MO|    180              -0.156050              -4.246338               2.000000
 MO|    181              -0.085940              -2.338553               0.000000
 MO|    182              -0.073925              -2.011605               0.000000
 MO|    183              -0.073690              -2.005216               0.000000
 MO|    184              -0.055831              -1.519226               0.000000
 MO|    185              -0.049495              -1.346827               0.000000
 MO|    186              -0.043637              -1.187434               0.000000
 MO|    187              -0.041837              -1.138438               0.000000
 MO|    188              -0.034464              -0.937813               0.000000
 MO|    189              -0.022878              -0.622537               0.000000
 MO|    190              -0.022369              -0.608684               0.000000
 MO|    191              -0.013399              -0.364612               0.000000
 MO|    192              -0.011534              -0.313853               0.000000
 MO|    193              -0.004965              -0.135115               0.000000
 MO|    194              -0.004316              -0.117456               0.000000
 MO|    195              -0.001809              -0.049217               0.000000
 MO|    196               0.001940               0.052796               0.000000
 MO|    197               0.003645               0.099193               0.000000
 MO|    198               0.007270               0.197831               0.000000
 MO|    199               0.008832               0.240334               0.000000
 MO|    200               0.011941               0.324919               0.000000
 MO|    201               0.015849               0.431263               0.000000
 MO|    202               0.022777               0.619797               0.000000
 MO|    203               0.026852               0.730686               0.000000
 MO|    204               0.027073               0.736700               0.000000
 MO|    205               0.035693               0.971264               0.000000
 MO|    206               0.038229               1.040274               0.000000
 MO|    207               0.038820               1.056336               0.000000
 MO|    208               0.039192               1.066478               0.000000
 MO|    209               0.047859               1.302318               0.000000
 MO|    210               0.053968               1.468542               0.000000
 MO|    211               0.054115               1.472531               0.000000
 MO|    212               0.054539               1.484093               0.000000
 MO|    213               0.056661               1.541823               0.000000
 MO|    214               0.059964               1.631708               0.000000
 MO|    215               0.064919               1.766533               0.000000
 MO|    216               0.065521               1.782919               0.000000
 MO|    217               0.071088               1.934410               0.000000
 MO|    218               0.072871               1.982919               0.000000
 MO|    219               0.074194               2.018935               0.000000
 MO|    220               0.075645               2.058402               0.000000
 MO|    221               0.077225               2.101406               0.000000
 MO|    222               0.078676               2.140878               0.000000
 MO|    223               0.086395               2.350939               0.000000
 MO|    224               0.090134               2.452678               0.000000
 MO|    225               0.091031               2.477090               0.000000
 MO|    226               0.091126               2.479667               0.000000
 MO|    227               0.091954               2.502185               0.000000
 MO|    228               0.095674               2.603411               0.000000
 MO|    229               0.099075               2.695957               0.000000
 MO|    230               0.100162               2.725544               0.000000
 MO|    231               0.102861               2.798980               0.000000
 MO|    232               0.107224               2.917717               0.000000
 MO|    233               0.109046               2.967294               0.000000
 MO|    234               0.114641               3.119545               0.000000
 MO|    235               0.115224               3.135411               0.000000
 MO|    236               0.119884               3.262216               0.000000
 MO|    237               0.121691               3.311392               0.000000
 MO|    238               0.123819               3.369294               0.000000
 MO|    239               0.125049               3.402749               0.000000
 MO|    240               0.129527               3.524608               0.000000
 MO|    241               0.131402               3.575628               0.000000
 MO|    242               0.136198               3.706123               0.000000
 MO|    243               0.141423               3.848328               0.000000
 MO|    244               0.147161               4.004449               0.000000
 MO|    245               0.147236               4.006497               0.000000
 MO|    246               0.149290               4.062378               0.000000
 MO|    247               0.151891               4.133165               0.000000
 MO|    248               0.152596               4.152336               0.000000
 MO|    249               0.154452               4.202847               0.000000
 MO|    250               0.158757               4.319996               0.000000
 MO|    251               0.158807               4.321362               0.000000
 MO|    252               0.159825               4.349070               0.000000
 MO|    253               0.161232               4.387351               0.000000
 MO|    254               0.163554               4.450529               0.000000
 MO|    255               0.165539               4.504544               0.000000
 MO|    256               0.166236               4.523506               0.000000
 MO|    257               0.174218               4.740723               0.000000
 MO|    258               0.176844               4.812158               0.000000
 MO|    259               0.176997               4.816344               0.000000
 MO|    260               0.184491               5.020263               0.000000
 MO|    261               0.187136               5.092228               0.000000
 MO|    262               0.187277               5.096060               0.000000
 MO|    263               0.190212               5.175919               0.000000
 MO|    264               0.191461               5.209922               0.000000
 MO|    265               0.192697               5.243561               0.000000
 MO|    266               0.193019               5.252323               0.000000
 MO|    267               0.196584               5.349335               0.000000
 MO|    268               0.197706               5.379854               0.000000
 MO|    269               0.201131               5.473040               0.000000
 MO|    270               0.202832               5.519352               0.000000
 MO|    271               0.205700               5.597384               0.000000
 MO|    272               0.205789               5.599798               0.000000
 MO|    273               0.205911               5.603112               0.000000
 MO|    274               0.208626               5.677013               0.000000
 MO|    275               0.211059               5.743198               0.000000
 MO|    276               0.211961               5.767740               0.000000
 MO|    277               0.218062               5.933782               0.000000
 MO|    278               0.219383               5.969703               0.000000
 MO|    279               0.219481               5.972385               0.000000
 MO|    280               0.221872               6.037442               0.000000
 MO| Sum:                                                             360.000000
 MO| E(Fermi):           -0.096038 a.u.         -2.613315 eV
 MO| Band gap:            0.070110 a.u.          1.907785 eV

    17 Broy./Diag. 0.40E+00    0.4     0.00004711     -2121.4710447248  5.33E-03
  Decoupling Energy:                                              -0.0000206102

 MO| EIGENVALUES AND OCCUPATION NUMBERS AFTER SCF STEP 17
 MO|
 MO|  Index      Eigenvalue [a.u.]        Eigenvalue [eV]             Occupation
 MO|      1              -9.798582            -266.632985               2.000000
 MO|      2              -9.798582            -266.632974               2.000000
 MO|      3              -9.798568            -266.632587               2.000000
 MO|      4              -9.798568            -266.632583               2.000000
 MO|      5              -9.797415            -266.601222               2.000000
 MO|      6              -9.797415            -266.601210               2.000000
 MO|      7              -9.795961            -266.561664               2.000000
 MO|      8              -9.795958            -266.561562               2.000000
 MO|      9              -9.795947            -266.561286               2.000000
 MO|     10              -9.795926            -266.560695               2.000000
 MO|     11              -9.795923            -266.560609               2.000000
 MO|     12              -9.795782            -266.556793               2.000000
 MO|     13              -9.795707            -266.554735               2.000000
 MO|     14              -9.795706            -266.554725               2.000000
 MO|     15              -9.795663            -266.553543               2.000000
 MO|     16              -9.795663            -266.553537               2.000000
 MO|     17              -9.795394            -266.546214               2.000000
 MO|     18              -9.795346            -266.544916               2.000000
 MO|     19              -9.795309            -266.543913               2.000000
 MO|     20              -9.795296            -266.543551               2.000000
 MO|     21              -9.795191            -266.540696               2.000000
 MO|     22              -9.795180            -266.540397               2.000000
 MO|     23              -9.795165            -266.539995               2.000000
 MO|     24              -9.795160            -266.539868               2.000000
 MO|     25              -9.794990            -266.535246               2.000000
 MO|     26              -9.794986            -266.535130               2.000000
 MO|     27              -9.794947            -266.534053               2.000000
 MO|     28              -9.794889            -266.532471               2.000000
 MO|     29              -9.794879            -266.532223               2.000000
 MO|     30              -9.794832            -266.530938               2.000000
 MO|     31              -9.794424            -266.519836               2.000000
 MO|     32              -9.794412            -266.519515               2.000000
 MO|     33              -9.794410            -266.519452               2.000000
 MO|     34              -9.794397            -266.519100               2.000000
 MO|     35              -9.787537            -266.332416               2.000000
 MO|     36              -9.787536            -266.332398               2.000000
 MO|     37              -9.787341            -266.327102               2.000000
 MO|     38              -9.787341            -266.327100               2.000000
 MO|     39              -9.787315            -266.326391               2.000000
 MO|     40              -9.787315            -266.326386               2.000000
 MO|     41              -9.785975            -266.289927               2.000000
 MO|     42              -9.785974            -266.289908               2.000000
 MO|     43              -9.785973            -266.289881               2.000000
 MO|     44              -9.785973            -266.289856               2.000000
 MO|     45              -9.784193            -266.241433               2.000000
 MO|     46              -9.784190            -266.241356               2.000000
 MO|     47              -9.784167            -266.240722               2.000000
 MO|     48              -9.784163            -266.240610               2.000000
 MO|     49              -9.783831            -266.231577               2.000000
 MO|     50              -9.783819            -266.231252               2.000000
 MO|     51              -9.783749            -266.229344               2.000000
 MO|     52              -9.783743            -266.229178               2.000000
 MO|     53              -9.781222            -266.160578               2.000000
 MO|     54              -9.781221            -266.160571               2.000000
 MO|     55              -9.781221            -266.160566               2.000000
 MO|     56              -9.781221            -266.160563               2.000000
 MO|     57              -0.842785             -22.933343               2.000000
 MO|     58              -0.835178             -22.726344               2.000000
 MO|     59              -0.822075             -22.369802               2.000000
 MO|     60              -0.810827             -22.063732               2.000000
 MO|     61              -0.804406             -21.888990               2.000000
 MO|     62              -0.802101             -21.826269               2.000000
 MO|     63              -0.788268             -21.449876               2.000000
 MO|     64              -0.776050             -21.117384               2.000000
 MO|     65              -0.773011             -21.034693               2.000000
 MO|     66              -0.758952             -20.652140               2.000000
 MO|     67              -0.751693             -20.454595               2.000000
 MO|     68              -0.749128             -20.384817               2.000000
 MO|     69              -0.741259             -20.170673               2.000000
 MO|     70              -0.737261             -20.061898               2.000000
 MO|     71              -0.724872             -19.724761               2.000000
 MO|     72              -0.712551             -19.389494               2.000000
 MO|     73              -0.709489             -19.306173               2.000000
 MO|     74              -0.694314             -18.893245               2.000000
 MO|     75              -0.686949             -18.692836               2.000000
 MO|     76              -0.686076             -18.669069               2.000000
 MO|     77              -0.679968             -18.502869               2.000000
 MO|     78              -0.678056             -18.450832               2.000000
 MO|     79              -0.671557             -18.273997               2.000000
 MO|     80              -0.669931             -18.229740               2.000000
 MO|     81              -0.662342             -18.023235               2.000000
 MO|     82              -0.641315             -17.451056               2.000000
 MO|     83              -0.640292             -17.423243               2.000000
 MO|     84              -0.615276             -16.742508               2.000000
 MO|     85              -0.614627             -16.724854               2.000000
 MO|     86              -0.600706             -16.346046               2.000000
 MO|     87              -0.595259             -16.197812               2.000000
 MO|     88              -0.583517             -15.878311               2.000000
 MO|     89              -0.582277             -15.844564               2.000000
 MO|     90              -0.579867             -15.778977               2.000000
 MO|     91              -0.575181             -15.651466               2.000000
 MO|     92              -0.573363             -15.602010               2.000000
 MO|     93              -0.563568             -15.335468               2.000000
 MO|     94              -0.548112             -14.914879               2.000000
 MO|     95              -0.546360             -14.867225               2.000000
 MO|     96              -0.523145             -14.235503               2.000000
 MO|     97              -0.521827             -14.199628               2.000000
 MO|     98              -0.516853             -14.064297               2.000000
 MO|     99              -0.516059             -14.042690               2.000000
 MO|    100              -0.501943             -13.658556               2.000000
 MO|    101              -0.496759             -13.517504               2.000000
 MO|    102              -0.495214             -13.475450               2.000000
 MO|    103              -0.490502             -13.347243               2.000000
 MO|    104              -0.480060             -13.063084               2.000000
 MO|    105              -0.474436             -12.910060               2.000000
 MO|    106              -0.470140             -12.793164               2.000000
 MO|    107              -0.459096             -12.492630               2.000000
 MO|    108              -0.455091             -12.383646               2.000000
 MO|    109              -0.449158             -12.222218               2.000000
 MO|    110              -0.438639             -11.935972               2.000000
 MO|    111              -0.434017             -11.810213               2.000000
 MO|    112              -0.432713             -11.774720               2.000000
 MO|    113              -0.428319             -11.655162               2.000000
 MO|    114              -0.426266             -11.599289               2.000000
 MO|    115              -0.420611             -11.445420               2.000000
 MO|    116              -0.410581             -11.172467               2.000000
 MO|    117              -0.410558             -11.171846               2.000000
 MO|    118              -0.407645             -11.092581               2.000000
 MO|    119              -0.406754             -11.068345               2.000000
 MO|    120              -0.405810             -11.042647               2.000000
 MO|    121              -0.405687             -11.039303               2.000000
 MO|    122              -0.399518             -10.871443               2.000000
 MO|    123              -0.393958             -10.720139               2.000000
 MO|    124              -0.393922             -10.719169               2.000000
 MO|    125              -0.390389             -10.623038               2.000000
 MO|    126              -0.384798             -10.470874               2.000000
 MO|    127              -0.378164             -10.290353               2.000000
 MO|    128              -0.374801             -10.198857               2.000000
 MO|    129              -0.373725             -10.169567               2.000000
 MO|    130              -0.372493             -10.136056               2.000000
 MO|    131              -0.371713             -10.114814               2.000000
 MO|    132              -0.366439              -9.971303               2.000000
 MO|    133              -0.365822              -9.954519               2.000000
 MO|    134              -0.365325              -9.941000               2.000000
 MO|    135              -0.360612              -9.812753               2.000000
 MO|    136              -0.359583              -9.784747               2.000000
 MO|    137              -0.354922              -9.657915               2.000000
 MO|    138              -0.353571              -9.621167               2.000000
 MO|    139              -0.349362              -9.506630               2.000000
 MO|    140              -0.349313              -9.505287               2.000000
 MO|    141              -0.345843              -9.410854               2.000000
 MO|    142              -0.344058              -9.362307               2.000000
 MO|    143              -0.342755              -9.326850               2.000000
 MO|    144              -0.340631              -9.269032               2.000000
 MO|    145              -0.337942              -9.195866               2.000000
 MO|    146              -0.332779              -9.055385               2.000000
 MO|    147              -0.326597              -8.887143               2.000000
 MO|    148              -0.318659              -8.671145               2.000000
 MO|    149              -0.317997              -8.653144               2.000000
 MO|    150              -0.316231              -8.605073               2.000000
 MO|    151              -0.312289              -8.497825               2.000000
 MO|    152              -0.307258              -8.360916               2.000000
 MO|    153              -0.305483              -8.312607               2.000000
 MO|    154              -0.304215              -8.278115               2.000000
 MO|    155              -0.301789              -8.212103               2.000000
 MO|    156              -0.301691              -8.209424               2.000000
 MO|    157              -0.297737              -8.101822               2.000000
 MO|    158              -0.291927              -7.943737               2.000000
 MO|    159              -0.290217              -7.897203               2.000000
 MO|    160              -0.286399              -7.793315               2.000000
 MO|    161              -0.277272              -7.544965               2.000000
 MO|    162              -0.276939              -7.535892               2.000000
 MO|    163              -0.266190              -7.243405               2.000000
 MO|    164              -0.265309              -7.219415               2.000000
 MO|    165              -0.263900              -7.181094               2.000000
 MO|    166              -0.260487              -7.088206               2.000000
 MO|    167              -0.251638              -6.847424               2.000000
 MO|    168              -0.244830              -6.662154               2.000000
 MO|    169              -0.233222              -6.346303               2.000000
 MO|    170              -0.232002              -6.313085               2.000000
 MO|    171              -0.230217              -6.264525               2.000000
 MO|    172              -0.227329              -6.185929               2.000000
 MO|    173              -0.223918              -6.093106               2.000000
 MO|    174              -0.219873              -5.983058               2.000000
 MO|    175              -0.208557              -5.675117               2.000000
 MO|    176              -0.207922              -5.657857               2.000000
 MO|    177              -0.193132              -5.255391               2.000000
 MO|    178              -0.176798              -4.810931               2.000000
 MO|    179              -0.169751              -4.619163               2.000000
 MO|    180              -0.156136              -4.248673               2.000000
 MO|    181              -0.086027              -2.340905               0.000000
 MO|    182              -0.074010              -2.013920               0.000000
 MO|    183              -0.073771              -2.007407               0.000000
 MO|    184              -0.055907              -1.521302               0.000000
 MO|    185              -0.049576              -1.349043               0.000000
 MO|    186              -0.043722              -1.189741               0.000000
 MO|    187              -0.041920              -1.140691               0.000000
 MO|    188              -0.034548              -0.940112               0.000000
 MO|    189              -0.022957              -0.624685               0.000000
 MO|    190              -0.022454              -0.610999               0.000000
 MO|    191              -0.013476              -0.366707               0.000000
 MO|    192              -0.011622              -0.316240               0.000000
 MO|    193              -0.004952              -0.134741               0.000000
 MO|    194              -0.004297              -0.116938               0.000000
 MO|    195              -0.001889              -0.051396               0.000000
 MO|    196               0.001932               0.052582               0.000000
 MO|    197               0.003648               0.099280               0.000000
 MO|    198               0.007263               0.197639               0.000000
 MO|    199               0.008763               0.238462               0.000000
 MO|    200               0.011937               0.324818               0.000000
 MO|    201               0.015859               0.431544               0.000000
 MO|    202               0.022783               0.619944               0.000000
 MO|    203               0.026866               0.731056               0.000000
 MO|    204               0.026992               0.734500               0.000000
 MO|    205               0.035705               0.971583               0.000000
 MO|    206               0.038198               1.039421               0.000000
 MO|    207               0.038745               1.054294               0.000000
 MO|    208               0.039205               1.066832               0.000000
 MO|    209               0.047852               1.302110               0.000000
 MO|    210               0.053937               1.467713               0.000000
 MO|    211               0.054148               1.473434               0.000000
 MO|    212               0.054508               1.483229               0.000000
 MO|    213               0.056633               1.541058               0.000000
 MO|    214               0.059912               1.630300               0.000000
 MO|    215               0.064908               1.766239               0.000000
 MO|    216               0.065545               1.783582               0.000000
 MO|    217               0.071081               1.934212               0.000000
 MO|    218               0.072860               1.982623               0.000000
 MO|    219               0.074186               2.018701               0.000000
 MO|    220               0.075610               2.057447               0.000000
 MO|    221               0.077177               2.100083               0.000000
 MO|    222               0.078644               2.140018               0.000000
 MO|    223               0.086391               2.350812               0.000000
 MO|    224               0.090109               2.451997               0.000000
 MO|    225               0.091033               2.477123               0.000000
 MO|    226               0.091079               2.478398               0.000000
 MO|    227               0.091901               2.500757               0.000000
 MO|    228               0.095626               2.602127               0.000000
 MO|    229               0.099024               2.694567               0.000000
 MO|    230               0.100153               2.725315               0.000000
 MO|    231               0.102864               2.799078               0.000000
 MO|    232               0.107221               2.917638               0.000000
 MO|    233               0.109018               2.966521               0.000000
 MO|    234               0.114609               3.118669               0.000000
 MO|    235               0.115192               3.134525               0.000000
 MO|    236               0.119830               3.260748               0.000000
 MO|    237               0.121631               3.309734               0.000000
 MO|    238               0.123812               3.369100               0.000000
 MO|    239               0.125055               3.402912               0.000000
 MO|    240               0.129505               3.524013               0.000000
 MO|    241               0.131385               3.575166               0.000000
 MO|    242               0.136163               3.705177               0.000000
 MO|    243               0.141404               3.847807               0.000000
 MO|    244               0.147128               4.003558               0.000000
 MO|    245               0.147192               4.005291               0.000000
 MO|    246               0.149303               4.062742               0.000000
 MO|    247               0.151858               4.132265               0.000000
 MO|    248               0.152574               4.151744               0.000000
 MO|    249               0.154391               4.201187               0.000000
 MO|    250               0.158733               4.319340               0.000000
 MO|    251               0.158762               4.320124               0.000000
 MO|    252               0.159814               4.348762               0.000000
 MO|    253               0.161189               4.386170               0.000000
 MO|    254               0.163543               4.450241               0.000000
 MO|    255               0.165508               4.503713               0.000000
 MO|    256               0.166251               4.523928               0.000000
 MO|    257               0.174189               4.739920               0.000000
 MO|    258               0.176841               4.812079               0.000000
 MO|    259               0.176996               4.816300               0.000000
 MO|    260               0.184406               5.017936               0.000000
 MO|    261               0.187080               5.090696               0.000000
 MO|    262               0.187210               5.094231               0.000000
 MO|    263               0.190148               5.174197               0.000000
 MO|    264               0.191470               5.210164               0.000000
 MO|    265               0.192676               5.242981               0.000000
 MO|    266               0.193030               5.252605               0.000000
 MO|    267               0.196539               5.348094               0.000000
 MO|    268               0.197695               5.379558               0.000000
 MO|    269               0.201073               5.471461               0.000000
 MO|    270               0.202808               5.518698               0.000000
 MO|    271               0.205675               5.596704               0.000000
 MO|    272               0.205725               5.598051               0.000000
 MO|    273               0.205910               5.603087               0.000000
 MO|    274               0.208581               5.675784               0.000000
 MO|    275               0.211006               5.741771               0.000000
 MO|    276               0.211925               5.766775               0.000000
 MO|    277               0.218023               5.932703               0.000000
 MO|    278               0.219350               5.968819               0.000000
 MO|    279               0.219504               5.972999               0.000000
 MO|    280               0.221833               6.036383               0.000000
 MO| Sum:                                                             360.000000
 MO| E(Fermi):           -0.096124 a.u.         -2.615667 eV
 MO| Band gap:            0.070109 a.u.          1.907768 eV

    18 Broy./Diag. 0.40E+00    0.4     0.00004532     -2121.4713560607 -3.11E-04
  Decoupling Energy:                                              -0.0000204325

 MO| EIGENVALUES AND OCCUPATION NUMBERS AFTER SCF STEP 18
 MO|
 MO|  Index      Eigenvalue [a.u.]        Eigenvalue [eV]             Occupation
 MO|      1              -9.798651            -266.634845               2.000000
 MO|      2              -9.798650            -266.634835               2.000000
 MO|      3              -9.798636            -266.634447               2.000000
 MO|      4              -9.798636            -266.634443               2.000000
 MO|      5              -9.797495            -266.603409               2.000000
 MO|      6              -9.797495            -266.603397               2.000000
 MO|      7              -9.796040            -266.563809               2.000000
 MO|      8              -9.796038            -266.563742               2.000000
 MO|      9              -9.796036            -266.563707               2.000000
 MO|     10              -9.796005            -266.562861               2.000000
 MO|     11              -9.796002            -266.562777               2.000000
 MO|     12              -9.795872            -266.559245               2.000000
 MO|     13              -9.795788            -266.556939               2.000000
 MO|     14              -9.795787            -266.556929               2.000000
 MO|     15              -9.795743            -266.555730               2.000000
 MO|     16              -9.795743            -266.555724               2.000000
 MO|     17              -9.795481            -266.548591               2.000000
 MO|     18              -9.795433            -266.547282               2.000000
 MO|     19              -9.795396            -266.546269               2.000000
 MO|     20              -9.795382            -266.545908               2.000000
 MO|     21              -9.795280            -266.543125               2.000000
 MO|     22              -9.795269            -266.542824               2.000000
 MO|     23              -9.795254            -266.542403               2.000000
 MO|     24              -9.795250            -266.542301               2.000000
 MO|     25              -9.795079            -266.537646               2.000000
 MO|     26              -9.795074            -266.537514               2.000000
 MO|     27              -9.795035            -266.536469               2.000000
 MO|     28              -9.794978            -266.534896               2.000000
 MO|     29              -9.794968            -266.534621               2.000000
 MO|     30              -9.794921            -266.533354               2.000000
 MO|     31              -9.794513            -266.522262               2.000000
 MO|     32              -9.794502            -266.521940               2.000000
 MO|     33              -9.794499            -266.521876               2.000000
 MO|     34              -9.794486            -266.521524               2.000000
 MO|     35              -9.787599            -266.334117               2.000000
 MO|     36              -9.787598            -266.334098               2.000000
 MO|     37              -9.787424            -266.329354               2.000000
 MO|     38              -9.787424            -266.329352               2.000000
 MO|     39              -9.787396            -266.328589               2.000000
 MO|     40              -9.787396            -266.328584               2.000000
 MO|     41              -9.786058            -266.292173               2.000000
 MO|     42              -9.786057            -266.292154               2.000000
 MO|     43              -9.786056            -266.292127               2.000000
 MO|     44              -9.786055            -266.292102               2.000000
 MO|     45              -9.784285            -266.243940               2.000000
 MO|     46              -9.784282            -266.243863               2.000000
 MO|     47              -9.784259            -266.243227               2.000000
 MO|     48              -9.784255            -266.243115               2.000000
 MO|     49              -9.783924            -266.234108               2.000000
 MO|     50              -9.783912            -266.233782               2.000000
 MO|     51              -9.783842            -266.231876               2.000000
 MO|     52              -9.783836            -266.231710               2.000000
 MO|     53              -9.781311            -266.163000               2.000000
 MO|     54              -9.781310            -266.162993               2.000000
 MO|     55              -9.781310            -266.162989               2.000000
 MO|     56              -9.781310            -266.162985               2.000000
 MO|     57              -0.842879             -22.935899               2.000000
 MO|     58              -0.835268             -22.728802               2.000000
 MO|     59              -0.822164             -22.372232               2.000000
 MO|     60              -0.810923             -22.066326               2.000000
 MO|     61              -0.804495             -21.891431               2.000000
 MO|     62              -0.802193             -21.828794               2.000000
 MO|     63              -0.788360             -21.452371               2.000000
 MO|     64              -0.776138             -21.119800               2.000000
 MO|     65              -0.773104             -21.037222               2.000000
 MO|     66              -0.759047             -20.654725               2.000000
 MO|     67              -0.751785             -20.457107               2.000000
 MO|     68              -0.749215             -20.387178               2.000000
 MO|     69              -0.741349             -20.173140               2.000000
 MO|     70              -0.737354             -20.064423               2.000000
 MO|     71              -0.724965             -19.727306               2.000000
 MO|     72              -0.712639             -19.391895               2.000000
 MO|     73              -0.709580             -19.308663               2.000000
 MO|     74              -0.694409             -18.895821               2.000000
 MO|     75              -0.687042             -18.695366               2.000000
 MO|     76              -0.686166             -18.671528               2.000000
 MO|     77              -0.680056             -18.505277               2.000000
 MO|     78              -0.678145             -18.453263               2.000000
 MO|     79              -0.671649             -18.276495               2.000000
 MO|     80              -0.670024             -18.232273               2.000000
 MO|     81              -0.662434             -18.025734               2.000000
 MO|     82              -0.641407             -17.453571               2.000000
 MO|     83              -0.640384             -17.425733               2.000000
 MO|     84              -0.615364             -16.744904               2.000000
 MO|     85              -0.614714             -16.727223               2.000000
 MO|     86              -0.600796             -16.348498               2.000000
 MO|     87              -0.595352             -16.200361               2.000000
 MO|     88              -0.583612             -15.880884               2.000000
 MO|     89              -0.582369             -15.847075               2.000000
 MO|     90              -0.579958             -15.781473               2.000000
 MO|     91              -0.575272             -15.653936               2.000000
 MO|     92              -0.573456             -15.604532               2.000000
 MO|     93              -0.563655             -15.337823               2.000000
 MO|     94              -0.548202             -14.917322               2.000000
 MO|     95              -0.546450             -14.869670               2.000000
 MO|     96              -0.523237             -14.238013               2.000000
 MO|     97              -0.521918             -14.202122               2.000000
 MO|     98              -0.516941             -14.066671               2.000000
 MO|     99              -0.516150             -14.045165               2.000000
 MO|    100              -0.502032             -13.660999               2.000000
 MO|    101              -0.496852             -13.520037               2.000000
 MO|    102              -0.495306             -13.477974               2.000000
 MO|    103              -0.490595             -13.349757               2.000000
 MO|    104              -0.480150             -13.065534               2.000000
 MO|    105              -0.474527             -12.912532               2.000000
 MO|    106              -0.470228             -12.795545               2.000000
 MO|    107              -0.459185             -12.495061               2.000000
 MO|    108              -0.455181             -12.386096               2.000000
 MO|    109              -0.449251             -12.224735               2.000000
 MO|    110              -0.438731             -11.938475               2.000000
 MO|    111              -0.434109             -11.812714               2.000000
 MO|    112              -0.432806             -11.777246               2.000000
 MO|    113              -0.428409             -11.657612               2.000000
 MO|    114              -0.426356             -11.601725               2.000000
 MO|    115              -0.420704             -11.447936               2.000000
 MO|    116              -0.410670             -11.174894               2.000000
 MO|    117              -0.410647             -11.174279               2.000000
 MO|    118              -0.407736             -11.095057               2.000000
 MO|    119              -0.406833             -11.070483               2.000000
 MO|    120              -0.405886             -11.044724               2.000000
 MO|    121              -0.405777             -11.041750               2.000000
 MO|    122              -0.399609             -10.873902               2.000000
 MO|    123              -0.394046             -10.722540               2.000000
 MO|    124              -0.394012             -10.721622               2.000000
 MO|    125              -0.390478             -10.625456               2.000000
 MO|    126              -0.384889             -10.473362               2.000000
 MO|    127              -0.378256             -10.292860               2.000000
 MO|    128              -0.374892             -10.201319               2.000000
 MO|    129              -0.373815             -10.172027               2.000000
 MO|    130              -0.372581             -10.138444               2.000000
 MO|    131              -0.371800             -10.117187               2.000000
 MO|    132              -0.366531              -9.973827               2.000000
 MO|    133              -0.365915              -9.957043               2.000000
 MO|    134              -0.365418              -9.943527               2.000000
 MO|    135              -0.360697              -9.815077               2.000000
 MO|    136              -0.359676              -9.787285               2.000000
 MO|    137              -0.355012              -9.660372               2.000000
 MO|    138              -0.353663              -9.623653               2.000000
 MO|    139              -0.349453              -9.509104               2.000000
 MO|    140              -0.349404              -9.507762               2.000000
 MO|    141              -0.345929              -9.413202               2.000000
 MO|    142              -0.344150              -9.364796               2.000000
 MO|    143              -0.342847              -9.329333               2.000000
 MO|    144              -0.340722              -9.271519               2.000000
 MO|    145              -0.338033              -9.198332               2.000000
 MO|    146              -0.332869              -9.057836               2.000000
 MO|    147              -0.326688              -8.889622               2.000000
 MO|    148              -0.318746              -8.673507               2.000000
 MO|    149              -0.318087              -8.655580               2.000000
 MO|    150              -0.316320              -8.607502               2.000000
 MO|    151              -0.312380              -8.500291               2.000000
 MO|    152              -0.307349              -8.363395               2.000000
 MO|    153              -0.305572              -8.315050               2.000000
 MO|    154              -0.304308              -8.280647               2.000000
 MO|    155              -0.301882              -8.214622               2.000000
 MO|    156              -0.301780              -8.211853               2.000000
 MO|    157              -0.297829              -8.104353               2.000000
 MO|    158              -0.292018              -7.946215               2.000000
 MO|    159              -0.290307              -7.899653               2.000000
 MO|    160              -0.286489              -7.795758               2.000000
 MO|    161              -0.277360              -7.547360               2.000000
 MO|    162              -0.277030              -7.538357               2.000000
 MO|    163              -0.266280              -7.245857               2.000000
 MO|    164              -0.265398              -7.221851               2.000000
 MO|    165              -0.263992              -7.183576               2.000000
 MO|    166              -0.260579              -7.090703               2.000000
 MO|    167              -0.251731              -6.849962               2.000000
 MO|    168              -0.244919              -6.664595               2.000000
 MO|    169              -0.233312              -6.348742               2.000000
 MO|    170              -0.232092              -6.315540               2.000000
 MO|    171              -0.230309              -6.267028               2.000000
 MO|    172              -0.227417              -6.188341               2.000000
 MO|    173              -0.224006              -6.095526               2.000000
 MO|    174              -0.219966              -5.985576               2.000000
 MO|    175              -0.208646              -5.677557               2.000000
 MO|    176              -0.208013              -5.660318               2.000000
 MO|    177              -0.193220              -5.257785               2.000000
 MO|    178              -0.176891              -4.813438               2.000000
 MO|    179              -0.169838              -4.621526               2.000000
 MO|    180              -0.156225              -4.251094               2.000000
 MO|    181              -0.086117              -2.343349               0.000000
 MO|    182              -0.074100              -2.016370               0.000000
 MO|    183              -0.073854              -2.009668               0.000000
 MO|    184              -0.055986              -1.523464               0.000000
 MO|    185              -0.049663              -1.351403               0.000000
 MO|    186              -0.043810              -1.192139               0.000000
 MO|    187              -0.042006              -1.143035               0.000000
 MO|    188              -0.034634              -0.942437               0.000000
 MO|    189              -0.023042              -0.626998               0.000000
 MO|    190              -0.022540              -0.613339               0.000000
 MO|    191              -0.013558              -0.368944               0.000000
 MO|    192              -0.011713              -0.318717               0.000000
 MO|    193              -0.004958              -0.134906               0.000000
 MO|    194              -0.004304              -0.117111               0.000000
 MO|    195              -0.001972              -0.053673               0.000000
 MO|    196               0.001936               0.052672               0.000000
 MO|    197               0.003649               0.099298               0.000000
 MO|    198               0.007271               0.197852               0.000000
 MO|    199               0.008687               0.236375               0.000000
 MO|    200               0.011935               0.324762               0.000000
 MO|    201               0.015884               0.432222               0.000000
 MO|    202               0.022801               0.620445               0.000000
 MO|    203               0.026885               0.731580               0.000000
 MO|    204               0.026907               0.732189               0.000000
 MO|    205               0.035732               0.972326               0.000000
 MO|    206               0.038140               1.037855               0.000000
 MO|    207               0.038665               1.052118               0.000000
 MO|    208               0.039220               1.067242               0.000000
 MO|    209               0.047846               1.301950               0.000000
 MO|    210               0.053880               1.466153               0.000000
 MO|    211               0.054186               1.474473               0.000000
 MO|    212               0.054450               1.481662               0.000000
 MO|    213               0.056588               1.539847               0.000000
 MO|    214               0.059850               1.628610               0.000000
 MO|    215               0.064889               1.765728               0.000000
 MO|    216               0.065581               1.784539               0.000000
 MO|    217               0.071058               1.933577               0.000000
 MO|    218               0.072847               1.982276               0.000000
 MO|    219               0.074186               2.018703               0.000000
 MO|    220               0.075573               2.056438               0.000000
 MO|    221               0.077109               2.098236               0.000000
 MO|    222               0.078603               2.138908               0.000000
 MO|    223               0.086396               2.350965               0.000000
 MO|    224               0.090085               2.451332               0.000000
 MO|    225               0.091017               2.476697               0.000000
 MO|    226               0.091047               2.477521               0.000000
 MO|    227               0.091851               2.499397               0.000000
 MO|    228               0.095581               2.600894               0.000000
 MO|    229               0.098972               2.693167               0.000000
 MO|    230               0.100139               2.724918               0.000000
 MO|    231               0.102855               2.798829               0.000000
 MO|    232               0.107224               2.917713               0.000000
 MO|    233               0.108999               2.966026               0.000000
 MO|    234               0.114577               3.117802               0.000000
 MO|    235               0.115164               3.133765               0.000000
 MO|    236               0.119764               3.258938               0.000000
 MO|    237               0.121567               3.308002               0.000000
 MO|    238               0.123792               3.368542               0.000000
 MO|    239               0.125045               3.402635               0.000000
 MO|    240               0.129486               3.523480               0.000000
 MO|    241               0.131376               3.574925               0.000000
 MO|    242               0.136129               3.704249               0.000000
 MO|    243               0.141388               3.847361               0.000000
 MO|    244               0.147102               4.002846               0.000000
 MO|    245               0.147123               4.003426               0.000000
 MO|    246               0.149299               4.062645               0.000000
 MO|    247               0.151828               4.131459               0.000000
 MO|    248               0.152559               4.151343               0.000000
 MO|    249               0.154290               4.198435               0.000000
 MO|    250               0.158656               4.317237               0.000000
 MO|    251               0.158737               4.319466               0.000000
 MO|    252               0.159805               4.348516               0.000000
 MO|    253               0.161143               4.384921               0.000000
 MO|    254               0.163537               4.450056               0.000000
 MO|    255               0.165479               4.502905               0.000000
 MO|    256               0.166203               4.522601               0.000000
 MO|    257               0.174142               4.738643               0.000000
 MO|    258               0.176799               4.810942               0.000000
 MO|    259               0.176988               4.816079               0.000000
 MO|    260               0.184316               5.015483               0.000000
 MO|    261               0.187018               5.089015               0.000000
 MO|    262               0.187139               5.092305               0.000000
 MO|    263               0.190088               5.172559               0.000000
 MO|    264               0.191467               5.210091               0.000000
 MO|    265               0.192624               5.241556               0.000000
 MO|    266               0.192997               5.251715               0.000000
 MO|    267               0.196472               5.346283               0.000000
 MO|    268               0.197684               5.379250               0.000000
 MO|    269               0.201018               5.469978               0.000000
 MO|    270               0.202749               5.517073               0.000000
 MO|    271               0.205642               5.595792               0.000000
 MO|    272               0.205655               5.596148               0.000000
 MO|    273               0.205903               5.602911               0.000000
 MO|    274               0.208527               5.674305               0.000000
 MO|    275               0.210945               5.740115               0.000000
 MO|    276               0.211893               5.765907               0.000000
 MO|    277               0.217957               5.930915               0.000000
 MO|    278               0.219297               5.967388               0.000000
 MO|    279               0.219516               5.973340               0.000000
 MO|    280               0.221786               6.035098               0.000000
 MO| Sum:                                                             360.000000
 MO| E(Fermi):           -0.096214 a.u.         -2.618111 eV
 MO| Band gap:            0.070108 a.u.          1.907745 eV

    19 Broy./Diag. 0.40E+00    0.4     0.00007819     -2121.4725198480 -1.16E-03
  Decoupling Energy:                                              -0.0000205229

 MO| EIGENVALUES AND OCCUPATION NUMBERS AFTER SCF STEP 19
 MO|
 MO|  Index      Eigenvalue [a.u.]        Eigenvalue [eV]             Occupation
 MO|      1              -9.798689            -266.635901               2.000000
 MO|      2              -9.798689            -266.635890               2.000000
 MO|      3              -9.798675            -266.635502               2.000000
 MO|      4              -9.798675            -266.635498               2.000000
 MO|      5              -9.797539            -266.604585               2.000000
 MO|      6              -9.797538            -266.604573               2.000000
 MO|      7              -9.796081            -266.564914               2.000000
 MO|      8              -9.796078            -266.564843               2.000000
 MO|      9              -9.796074            -266.564740               2.000000
 MO|     10              -9.796043            -266.563894               2.000000
 MO|     11              -9.796040            -266.563810               2.000000
 MO|     12              -9.795915            -266.560415               2.000000
 MO|     13              -9.795825            -266.557965               2.000000
 MO|     14              -9.795825            -266.557956               2.000000
 MO|     15              -9.795781            -266.556759               2.000000
 MO|     16              -9.795781            -266.556753               2.000000
 MO|     17              -9.795523            -266.549726               2.000000
 MO|     18              -9.795474            -266.548412               2.000000
 MO|     19              -9.795436            -266.547381               2.000000
 MO|     20              -9.795423            -266.547018               2.000000
 MO|     21              -9.795322            -266.544267               2.000000
 MO|     22              -9.795311            -266.543962               2.000000
 MO|     23              -9.795295            -266.543542               2.000000
 MO|     24              -9.795292            -266.543449               2.000000
 MO|     25              -9.795119            -266.538749               2.000000
 MO|     26              -9.795113            -266.538588               2.000000
 MO|     27              -9.795078            -266.537615               2.000000
 MO|     28              -9.795020            -266.536037               2.000000
 MO|     29              -9.795008            -266.535726               2.000000
 MO|     30              -9.794962            -266.534482               2.000000
 MO|     31              -9.794553            -266.523334               2.000000
 MO|     32              -9.794541            -266.523012               2.000000
 MO|     33              -9.794539            -266.522948               2.000000
 MO|     34              -9.794526            -266.522596               2.000000
 MO|     35              -9.787631            -266.334980               2.000000
 MO|     36              -9.787630            -266.334961               2.000000
 MO|     37              -9.787455            -266.330202               2.000000
 MO|     38              -9.787455            -266.330201               2.000000
 MO|     39              -9.787427            -266.329438               2.000000
 MO|     40              -9.787427            -266.329434               2.000000
 MO|     41              -9.786095            -266.293186               2.000000
 MO|     42              -9.786094            -266.293167               2.000000
 MO|     43              -9.786093            -266.293140               2.000000
 MO|     44              -9.786092            -266.293115               2.000000
 MO|     45              -9.784326            -266.245054               2.000000
 MO|     46              -9.784323            -266.244977               2.000000
 MO|     47              -9.784300            -266.244342               2.000000
 MO|     48              -9.784296            -266.244230               2.000000
 MO|     49              -9.783964            -266.235205               2.000000
 MO|     50              -9.783952            -266.234879               2.000000
 MO|     51              -9.783882            -266.232972               2.000000
 MO|     52              -9.783876            -266.232805               2.000000
 MO|     53              -9.781345            -266.163937               2.000000
 MO|     54              -9.781345            -266.163930               2.000000
 MO|     55              -9.781345            -266.163925               2.000000
 MO|     56              -9.781345            -266.163922               2.000000
 MO|     57              -0.842917             -22.936927               2.000000
 MO|     58              -0.835305             -22.729798               2.000000
 MO|     59              -0.822201             -22.373223               2.000000
 MO|     60              -0.810960             -22.067339               2.000000
 MO|     61              -0.804532             -21.892418               2.000000
 MO|     62              -0.802230             -21.829777               2.000000
 MO|     63              -0.788396             -21.453342               2.000000
 MO|     64              -0.776175             -21.120788               2.000000
 MO|     65              -0.773140             -21.038199               2.000000
 MO|     66              -0.759084             -20.655727               2.000000
 MO|     67              -0.751821             -20.458077               2.000000
 MO|     68              -0.749251             -20.388154               2.000000
 MO|     69              -0.741384             -20.174095               2.000000
 MO|     70              -0.737390             -20.065411               2.000000
 MO|     71              -0.725001             -19.728289               2.000000
 MO|     72              -0.712676             -19.392889               2.000000
 MO|     73              -0.709616             -19.309632               2.000000
 MO|     74              -0.694446             -18.896826               2.000000
 MO|     75              -0.687078             -18.696355               2.000000
 MO|     76              -0.686202             -18.672497               2.000000
 MO|     77              -0.680091             -18.506225               2.000000
 MO|     78              -0.678182             -18.454264               2.000000
 MO|     79              -0.671685             -18.277476               2.000000
 MO|     80              -0.670060             -18.233273               2.000000
 MO|     81              -0.662469             -18.026709               2.000000
 MO|     82              -0.641443             -17.454554               2.000000
 MO|     83              -0.640420             -17.426718               2.000000
 MO|     84              -0.615399             -16.745856               2.000000
 MO|     85              -0.614748             -16.728151               2.000000
 MO|     86              -0.600833             -16.349484               2.000000
 MO|     87              -0.595389             -16.201361               2.000000
 MO|     88              -0.583649             -15.881898               2.000000
 MO|     89              -0.582406             -15.848067               2.000000
 MO|     90              -0.579995             -15.782458               2.000000
 MO|     91              -0.575308             -15.654914               2.000000
 MO|     92              -0.573493             -15.605531               2.000000
 MO|     93              -0.563690             -15.338793               2.000000
 MO|     94              -0.548237             -14.918286               2.000000
 MO|     95              -0.546485             -14.870623               2.000000
 MO|     96              -0.523274             -14.238999               2.000000
 MO|     97              -0.521954             -14.203103               2.000000
 MO|     98              -0.516977             -14.067651               2.000000
 MO|     99              -0.516186             -14.046130               2.000000
 MO|    100              -0.502068             -13.661964               2.000000
 MO|    101              -0.496889             -13.521026               2.000000
 MO|    102              -0.495343             -13.478960               2.000000
 MO|    103              -0.490631             -13.350741               2.000000
 MO|    104              -0.480185             -13.066498               2.000000
 MO|    105              -0.474562             -12.913498               2.000000
 MO|    106              -0.470263             -12.796507               2.000000
 MO|    107              -0.459220             -12.496019               2.000000
 MO|    108              -0.455216             -12.387047               2.000000
 MO|    109              -0.449287             -12.225717               2.000000
 MO|    110              -0.438767             -11.939449               2.000000
 MO|    111              -0.434145             -11.813687               2.000000
 MO|    112              -0.432842             -11.778236               2.000000
 MO|    113              -0.428444             -11.658567               2.000000
 MO|    114              -0.426390             -11.602654               2.000000
 MO|    115              -0.420739             -11.448900               2.000000
 MO|    116              -0.410704             -11.175827               2.000000
 MO|    117              -0.410683             -11.175242               2.000000
 MO|    118              -0.407772             -11.096036               2.000000
 MO|    119              -0.406866             -11.071383               2.000000
 MO|    120              -0.405919             -11.045607               2.000000
 MO|    121              -0.405813             -11.042730               2.000000
 MO|    122              -0.399644             -10.874874               2.000000
 MO|    123              -0.394080             -10.723455               2.000000
 MO|    124              -0.394048             -10.722587               2.000000
 MO|    125              -0.390514             -10.626437               2.000000
 MO|    126              -0.384925             -10.474354               2.000000
 MO|    127              -0.378291             -10.293833               2.000000
 MO|    128              -0.374927             -10.202277               2.000000
 MO|    129              -0.373851             -10.172997               2.000000
 MO|    130              -0.372616             -10.139399               2.000000
 MO|    131              -0.371835             -10.118149               2.000000
 MO|    132              -0.366568              -9.974825               2.000000
 MO|    133              -0.365951              -9.958035               2.000000
 MO|    134              -0.365455              -9.944523               2.000000
 MO|    135              -0.360733              -9.816042               2.000000
 MO|    136              -0.359712              -9.788268               2.000000
 MO|    137              -0.355048              -9.661355               2.000000
 MO|    138              -0.353699              -9.624629               2.000000
 MO|    139              -0.349489              -9.510068               2.000000
 MO|    140              -0.349439              -9.508715               2.000000
 MO|    141              -0.345964              -9.414162               2.000000
 MO|    142              -0.344185              -9.365753               2.000000
 MO|    143              -0.342881              -9.330274               2.000000
 MO|    144              -0.340758              -9.272489               2.000000
 MO|    145              -0.338067              -9.199280               2.000000
 MO|    146              -0.332904              -9.058780               2.000000
 MO|    147              -0.326722              -8.890564               2.000000
 MO|    148              -0.318780              -8.674455               2.000000
 MO|    149              -0.318122              -8.656539               2.000000
 MO|    150              -0.316354              -8.608431               2.000000
 MO|    151              -0.312415              -8.501236               2.000000
 MO|    152              -0.307385              -8.364373               2.000000
 MO|    153              -0.305607              -8.316000               2.000000
 MO|    154              -0.304345              -8.281646               2.000000
 MO|    155              -0.301917              -8.215592               2.000000
 MO|    156              -0.301815              -8.212799               2.000000
 MO|    157              -0.297865              -8.105323               2.000000
 MO|    158              -0.292053              -7.947174               2.000000
 MO|    159              -0.290342              -7.900599               2.000000
 MO|    160              -0.286525              -7.796733               2.000000
 MO|    161              -0.277396              -7.548329               2.000000
 MO|    162              -0.277064              -7.539306               2.000000
 MO|    163              -0.266316              -7.246834               2.000000
 MO|    164              -0.265434              -7.222828               2.000000
 MO|    165              -0.264026              -7.184525               2.000000
 MO|    166              -0.260616              -7.091722               2.000000
 MO|    167              -0.251768              -6.850967               2.000000
 MO|    168              -0.244954              -6.665526               2.000000
 MO|    169              -0.233348              -6.349711               2.000000
 MO|    170              -0.232127              -6.316492               2.000000
 MO|    171              -0.230345              -6.268000               2.000000
 MO|    172              -0.227452              -6.189284               2.000000
 MO|    173              -0.224041              -6.096469               2.000000
 MO|    174              -0.220002              -5.986561               2.000000
 MO|    175              -0.208681              -5.678495               2.000000
 MO|    176              -0.208048              -5.661272               2.000000
 MO|    177              -0.193254              -5.258712               2.000000
 MO|    178              -0.176926              -4.814405               2.000000
 MO|    179              -0.169872              -4.622455               2.000000
 MO|    180              -0.156260              -4.252059               2.000000
 MO|    181              -0.086152              -2.344323               0.000000
 MO|    182              -0.074135              -2.017324               0.000000
 MO|    183              -0.073887              -2.010573               0.000000
 MO|    184              -0.056018              -1.524333               0.000000
 MO|    185              -0.049697              -1.352334               0.000000
 MO|    186              -0.043845              -1.193070               0.000000
 MO|    187              -0.042039              -1.143947               0.000000
 MO|    188              -0.034667              -0.943344               0.000000
 MO|    189              -0.023076              -0.627921               0.000000
 MO|    190              -0.022573              -0.614253               0.000000
 MO|    191              -0.013592              -0.369858               0.000000
 MO|    192              -0.011748              -0.319682               0.000000
 MO|    193              -0.004970              -0.135242               0.000000
 MO|    194              -0.004320              -0.117560               0.000000
 MO|    195              -0.002005              -0.054566               0.000000
 MO|    196               0.001950               0.053054               0.000000
 MO|    197               0.003654               0.099423               0.000000
 MO|    198               0.007287               0.198283               0.000000
 MO|    199               0.008654               0.235500               0.000000
 MO|    200               0.011941               0.324931               0.000000
 MO|    201               0.015905               0.432785               0.000000
 MO|    202               0.022821               0.620997               0.000000
 MO|    203               0.026873               0.731256               0.000000
 MO|    204               0.026898               0.731925               0.000000
 MO|    205               0.035757               0.972989               0.000000
 MO|    206               0.038106               1.036909               0.000000
 MO|    207               0.038633               1.051248               0.000000
 MO|    208               0.039229               1.067486               0.000000
 MO|    209               0.047849               1.302028               0.000000
 MO|    210               0.053852               1.465392               0.000000
 MO|    211               0.054206               1.475023               0.000000
 MO|    212               0.054417               1.480763               0.000000
 MO|    213               0.056573               1.539427               0.000000
 MO|    214               0.059822               1.627843               0.000000
 MO|    215               0.064883               1.765555               0.000000
 MO|    216               0.065605               1.785209               0.000000
 MO|    217               0.071045               1.933225               0.000000
 MO|    218               0.072845               1.982215               0.000000
 MO|    219               0.074195               2.018953               0.000000
 MO|    220               0.075560               2.056103               0.000000
 MO|    221               0.077075               2.097324               0.000000
 MO|    222               0.078586               2.138430               0.000000
 MO|    223               0.086408               2.351268               0.000000
 MO|    224               0.090077               2.451124               0.000000
 MO|    225               0.090987               2.475886               0.000000
 MO|    226               0.091066               2.478036               0.000000
 MO|    227               0.091843               2.499185               0.000000
 MO|    228               0.095575               2.600740               0.000000
 MO|    229               0.098960               2.692832               0.000000
 MO|    230               0.100131               2.724715               0.000000
 MO|    231               0.102848               2.798633               0.000000
 MO|    232               0.107235               2.918025               0.000000
 MO|    233               0.109003               2.966123               0.000000
 MO|    234               0.114573               3.117700               0.000000
 MO|    235               0.115161               3.133686               0.000000
 MO|    236               0.119735               3.258150               0.000000
 MO|    237               0.121541               3.307296               0.000000
 MO|    238               0.123779               3.368196               0.000000
 MO|    239               0.125034               3.402342               0.000000
 MO|    240               0.129487               3.523518               0.000000
 MO|    241               0.131381               3.575061               0.000000
 MO|    242               0.136122               3.704072               0.000000
 MO|    243               0.141389               3.847392               0.000000
 MO|    244               0.147095               4.002654               0.000000
 MO|    245               0.147098               4.002742               0.000000
 MO|    246               0.149291               4.062402               0.000000
 MO|    247               0.151820               4.131239               0.000000
 MO|    248               0.152561               4.151404               0.000000
 MO|    249               0.154243               4.197172               0.000000
 MO|    250               0.158626               4.316425               0.000000
 MO|    251               0.158715               4.318857               0.000000
 MO|    252               0.159802               4.348441               0.000000
 MO|    253               0.161127               4.384494               0.000000
 MO|    254               0.163535               4.450027               0.000000
 MO|    255               0.165477               4.502858               0.000000
 MO|    256               0.166154               4.521268               0.000000
 MO|    257               0.174114               4.737885               0.000000
 MO|    258               0.176759               4.809845               0.000000
 MO|    259               0.176983               4.815960               0.000000
 MO|    260               0.184280               5.014521               0.000000
 MO|    261               0.186992               5.088320               0.000000
 MO|    262               0.187110               5.091531               0.000000
 MO|    263               0.190069               5.172028               0.000000
 MO|    264               0.191459               5.209852               0.000000
 MO|    265               0.192586               5.240526               0.000000
 MO|    266               0.192957               5.250618               0.000000
 MO|    267               0.196434               5.345251               0.000000
 MO|    268               0.197680               5.379136               0.000000
 MO|    269               0.201001               5.469503               0.000000
 MO|    270               0.202704               5.515858               0.000000
 MO|    271               0.205626               5.595369               0.000000
 MO|    272               0.205629               5.595446               0.000000
 MO|    273               0.205902               5.602882               0.000000
 MO|    274               0.208502               5.673632               0.000000
 MO|    275               0.210917               5.739341               0.000000
 MO|    276               0.211884               5.765665               0.000000
 MO|    277               0.217916               5.929790               0.000000
 MO|    278               0.219265               5.966509               0.000000
 MO|    279               0.219515               5.973317               0.000000
 MO|    280               0.221766               6.034558               0.000000
 MO| Sum:                                                             360.000000
 MO| E(Fermi):           -0.096250 a.u.         -2.619085 eV
 MO| Band gap:            0.070108 a.u.          1.907736 eV

    20 Broy./Diag. 0.40E+00    0.4     0.00004537     -2121.4713271084  1.19E-03
  Decoupling Energy:                                              -0.0000205925

 MO| EIGENVALUES AND OCCUPATION NUMBERS AFTER SCF STEP 20
 MO|
 MO|  Index      Eigenvalue [a.u.]        Eigenvalue [eV]             Occupation
 MO|      1              -9.798704            -266.636298               2.000000
 MO|      2              -9.798704            -266.636287               2.000000
 MO|      3              -9.798689            -266.635899               2.000000
 MO|      4              -9.798689            -266.635895               2.000000
 MO|      5              -9.797555            -266.605042               2.000000
 MO|      6              -9.797555            -266.605030               2.000000
 MO|      7              -9.796100            -266.565430               2.000000
 MO|      8              -9.796096            -266.565327               2.000000
 MO|      9              -9.796092            -266.565225               2.000000
 MO|     10              -9.796061            -266.564380               2.000000
 MO|     11              -9.796058            -266.564295               2.000000
 MO|     12              -9.795934            -266.560931               2.000000
 MO|     13              -9.795843            -266.558451               2.000000
 MO|     14              -9.795843            -266.558441               2.000000
 MO|     15              -9.795799            -266.557244               2.000000
 MO|     16              -9.795799            -266.557238               2.000000
 MO|     17              -9.795541            -266.550233               2.000000
 MO|     18              -9.795493            -266.548918               2.000000
 MO|     19              -9.795455            -266.547892               2.000000
 MO|     20              -9.795442            -266.547528               2.000000
 MO|     21              -9.795340            -266.544769               2.000000
 MO|     22              -9.795329            -266.544462               2.000000
 MO|     23              -9.795314            -266.544047               2.000000
 MO|     24              -9.795311            -266.543955               2.000000
 MO|     25              -9.795138            -266.539270               2.000000
 MO|     26              -9.795133            -266.539116               2.000000
 MO|     27              -9.795096            -266.538124               2.000000
 MO|     28              -9.795038            -266.536540               2.000000
 MO|     29              -9.795027            -266.536246               2.000000
 MO|     30              -9.794981            -266.534991               2.000000
 MO|     31              -9.794572            -266.523853               2.000000
 MO|     32              -9.794560            -266.523532               2.000000
 MO|     33              -9.794558            -266.523468               2.000000
 MO|     34              -9.794545            -266.523116               2.000000
 MO|     35              -9.787645            -266.335370               2.000000
 MO|     36              -9.787645            -266.335352               2.000000
 MO|     37              -9.787473            -266.330686               2.000000
 MO|     38              -9.787473            -266.330685               2.000000
 MO|     39              -9.787445            -266.329912               2.000000
 MO|     40              -9.787444            -266.329908               2.000000
 MO|     41              -9.786113            -266.293672               2.000000
 MO|     42              -9.786112            -266.293653               2.000000
 MO|     43              -9.786111            -266.293626               2.000000
 MO|     44              -9.786110            -266.293600               2.000000
 MO|     45              -9.784344            -266.245544               2.000000
 MO|     46              -9.784341            -266.245467               2.000000
 MO|     47              -9.784318            -266.244832               2.000000
 MO|     48              -9.784314            -266.244720               2.000000
 MO|     49              -9.783982            -266.235700               2.000000
 MO|     50              -9.783970            -266.235374               2.000000
 MO|     51              -9.783900            -266.233468               2.000000
 MO|     52              -9.783894            -266.233301               2.000000
 MO|     53              -9.781365            -266.164482               2.000000
 MO|     54              -9.781365            -266.164475               2.000000
 MO|     55              -9.781365            -266.164471               2.000000
 MO|     56              -9.781365            -266.164468               2.000000
 MO|     57              -0.842931             -22.937319               2.000000
 MO|     58              -0.835319             -22.730174               2.000000
 MO|     59              -0.822214             -22.373588               2.000000
 MO|     60              -0.810974             -22.067729               2.000000
 MO|     61              -0.804545             -21.892787               2.000000
 MO|     62              -0.802244             -21.830161               2.000000
 MO|     63              -0.788410             -21.453719               2.000000
 MO|     64              -0.776189             -21.121166               2.000000
 MO|     65              -0.773153             -21.038575               2.000000
 MO|     66              -0.759098             -20.656119               2.000000
 MO|     67              -0.751835             -20.458464               2.000000
 MO|     68              -0.749265             -20.388528               2.000000
 MO|     69              -0.741398             -20.174475               2.000000
 MO|     70              -0.737405             -20.065798               2.000000
 MO|     71              -0.725016             -19.728677               2.000000
 MO|     72              -0.712690             -19.393273               2.000000
 MO|     73              -0.709630             -19.310015               2.000000
 MO|     74              -0.694460             -18.897222               2.000000
 MO|     75              -0.687093             -18.696750               2.000000
 MO|     76              -0.686216             -18.672886               2.000000
 MO|     77              -0.680105             -18.506607               2.000000
 MO|     78              -0.678196             -18.454655               2.000000
 MO|     79              -0.671699             -18.277864               2.000000
 MO|     80              -0.670075             -18.233669               2.000000
 MO|     81              -0.662484             -18.027101               2.000000
 MO|     82              -0.641457             -17.454939               2.000000
 MO|     83              -0.640435             -17.427112               2.000000
 MO|     84              -0.615414             -16.746254               2.000000
 MO|     85              -0.614763             -16.728545               2.000000
 MO|     86              -0.600847             -16.349870               2.000000
 MO|     87              -0.595404             -16.201759               2.000000
 MO|     88              -0.583664             -15.882293               2.000000
 MO|     89              -0.582420             -15.848465               2.000000
 MO|     90              -0.580009             -15.782850               2.000000
 MO|     91              -0.575322             -15.655310               2.000000
 MO|     92              -0.573508             -15.605933               2.000000
 MO|     93              -0.563704             -15.339174               2.000000
 MO|     94              -0.548251             -14.918677               2.000000
 MO|     95              -0.546500             -14.871008               2.000000
 MO|     96              -0.523288             -14.239395               2.000000
 MO|     97              -0.521969             -14.203508               2.000000
 MO|     98              -0.516991             -14.068036               2.000000
 MO|     99              -0.516200             -14.046522               2.000000
 MO|    100              -0.502083             -13.662372               2.000000
 MO|    101              -0.496903             -13.521427               2.000000
 MO|    102              -0.495357             -13.479357               2.000000
 MO|    103              -0.490645             -13.351131               2.000000
 MO|    104              -0.480199             -13.066890               2.000000
 MO|    105              -0.474577             -12.913903               2.000000
 MO|    106              -0.470277             -12.796897               2.000000
 MO|    107              -0.459234             -12.496399               2.000000
 MO|    108              -0.455230             -12.387425               2.000000
 MO|    109              -0.449302             -12.226123               2.000000
 MO|    110              -0.438782             -11.939853               2.000000
 MO|    111              -0.434160             -11.814085               2.000000
 MO|    112              -0.432857             -11.778631               2.000000
 MO|    113              -0.428459             -11.658951               2.000000
 MO|    114              -0.426404             -11.603035               2.000000
 MO|    115              -0.420754             -11.449308               2.000000
 MO|    116              -0.410718             -11.176210               2.000000
 MO|    117              -0.410697             -11.175630               2.000000
 MO|    118              -0.407787             -11.096436               2.000000
 MO|    119              -0.406879             -11.071730               2.000000
 MO|    120              -0.405931             -11.045947               2.000000
 MO|    121              -0.405828             -11.043132               2.000000
 MO|    122              -0.399659             -10.875265               2.000000
 MO|    123              -0.394093             -10.723823               2.000000
 MO|    124              -0.394062             -10.722986               2.000000
 MO|    125              -0.390529             -10.626824               2.000000
 MO|    126              -0.384940             -10.474752               2.000000
 MO|    127              -0.378306             -10.294221               2.000000
 MO|    128              -0.374941             -10.202666               2.000000
 MO|    129              -0.373865             -10.173396               2.000000
 MO|    130              -0.372630             -10.139775               2.000000
 MO|    131              -0.371849             -10.118535               2.000000
 MO|    132              -0.366583              -9.975224               2.000000
 MO|    133              -0.365966              -9.958437               2.000000
 MO|    134              -0.365469              -9.944926               2.000000
 MO|    135              -0.360747              -9.816436               2.000000
 MO|    136              -0.359726              -9.788653               2.000000
 MO|    137              -0.355063              -9.661745               2.000000
 MO|    138              -0.353713              -9.625033               2.000000
 MO|    139              -0.349503              -9.510463               2.000000
 MO|    140              -0.349453              -9.509091               2.000000
 MO|    141              -0.345978              -9.414545               2.000000
 MO|    142              -0.344200              -9.366156               2.000000
 MO|    143              -0.342895              -9.330660               2.000000
 MO|    144              -0.340772              -9.272880               2.000000
 MO|    145              -0.338081              -9.199665               2.000000
 MO|    146              -0.332918              -9.059148               2.000000
 MO|    147              -0.326737              -8.890963               2.000000
 MO|    148              -0.318794              -8.674835               2.000000
 MO|    149              -0.318137              -8.656946               2.000000
 MO|    150              -0.316368              -8.608813               2.000000
 MO|    151              -0.312428              -8.501603               2.000000
 MO|    152              -0.307400              -8.364774               2.000000
 MO|    153              -0.305622              -8.316392               2.000000
 MO|    154              -0.304360              -8.282050               2.000000
 MO|    155              -0.301932              -8.215978               2.000000
 MO|    156              -0.301829              -8.213187               2.000000
 MO|    157              -0.297880              -8.105736               2.000000
 MO|    158              -0.292067              -7.947554               2.000000
 MO|    159              -0.290356              -7.900982               2.000000
 MO|    160              -0.286539              -7.797133               2.000000
 MO|    161              -0.277410              -7.548714               2.000000
 MO|    162              -0.277078              -7.539677               2.000000
 MO|    163              -0.266331              -7.247240               2.000000
 MO|    164              -0.265448              -7.223207               2.000000
 MO|    165              -0.264040              -7.184904               2.000000
 MO|    166              -0.260631              -7.092126               2.000000
 MO|    167              -0.251784              -6.851378               2.000000
 MO|    168              -0.244967              -6.665892               2.000000
 MO|    169              -0.233362              -6.350092               2.000000
 MO|    170              -0.232141              -6.316874               2.000000
 MO|    171              -0.230359              -6.268382               2.000000
 MO|    172              -0.227466              -6.189652               2.000000
 MO|    173              -0.224055              -6.096836               2.000000
 MO|    174              -0.220016              -5.986946               2.000000
 MO|    175              -0.208694              -5.678866               2.000000
 MO|    176              -0.208062              -5.661655               2.000000
 MO|    177              -0.193268              -5.259084               2.000000
 MO|    178              -0.176940              -4.814786               2.000000
 MO|    179              -0.169886              -4.622828               2.000000
 MO|    180              -0.156274              -4.252440               2.000000
 MO|    181              -0.086166              -2.344701               0.000000
 MO|    182              -0.074149              -2.017709               0.000000
 MO|    183              -0.073901              -2.010941               0.000000
 MO|    184              -0.056032              -1.524708               0.000000
 MO|    185              -0.049712              -1.352722               0.000000
 MO|    186              -0.043858              -1.193442               0.000000
 MO|    187              -0.042053              -1.144320               0.000000
 MO|    188              -0.034680              -0.943704               0.000000
 MO|    189              -0.023090              -0.628321               0.000000
 MO|    190              -0.022587              -0.614614               0.000000
 MO|    191              -0.013607              -0.370253               0.000000
 MO|    192              -0.011762              -0.320062               0.000000
 MO|    193              -0.004987              -0.135707               0.000000
 MO|    194              -0.004342              -0.118162               0.000000
 MO|    195              -0.002019              -0.054939               0.000000
 MO|    196               0.001963               0.053410               0.000000
 MO|    197               0.003655               0.099462               0.000000
 MO|    198               0.007302               0.198705               0.000000
 MO|    199               0.008638               0.235056               0.000000
 MO|    200               0.011947               0.325106               0.000000
 MO|    201               0.015919               0.433188               0.000000
 MO|    202               0.022839               0.621490               0.000000
 MO|    203               0.026859               0.730870               0.000000
 MO|    204               0.026904               0.732085               0.000000
 MO|    205               0.035777               0.973531               0.000000
 MO|    206               0.038078               1.036166               0.000000
 MO|    207               0.038619               1.050865               0.000000
 MO|    208               0.039233               1.067572               0.000000
 MO|    209               0.047852               1.302128               0.000000
 MO|    210               0.053837               1.464974               0.000000
 MO|    211               0.054217               1.475330               0.000000
 MO|    212               0.054392               1.480068               0.000000
 MO|    213               0.056569               1.539311               0.000000
 MO|    214               0.059806               1.627394               0.000000
 MO|    215               0.064875               1.765339               0.000000
 MO|    216               0.065623               1.785691               0.000000
 MO|    217               0.071029               1.932809               0.000000
 MO|    218               0.072841               1.982116               0.000000
 MO|    219               0.074205               2.019224               0.000000
 MO|    220               0.075555               2.055949               0.000000
 MO|    221               0.077053               2.096723               0.000000
 MO|    222               0.078573               2.138079               0.000000
 MO|    223               0.086418               2.351564               0.000000
 MO|    224               0.090072               2.450989               0.000000
 MO|    225               0.090967               2.475348               0.000000
 MO|    226               0.091083               2.478490               0.000000
 MO|    227               0.091847               2.499277               0.000000
 MO|    228               0.095580               2.600864               0.000000
 MO|    229               0.098959               2.692810               0.000000
 MO|    230               0.100122               2.724463               0.000000
 MO|    231               0.102835               2.798290               0.000000
 MO|    232               0.107246               2.918323               0.000000
 MO|    233               0.109011               2.966351               0.000000
 MO|    234               0.114578               3.117820               0.000000
 MO|    235               0.115164               3.133779               0.000000
 MO|    236               0.119719               3.257729               0.000000
 MO|    237               0.121529               3.306965               0.000000
 MO|    238               0.123765               3.367815               0.000000
 MO|    239               0.125017               3.401893               0.000000
 MO|    240               0.129493               3.523685               0.000000
 MO|    241               0.131388               3.575243               0.000000
 MO|    242               0.136123               3.704098               0.000000
 MO|    243               0.141394               3.847531               0.000000
 MO|    244               0.147079               4.002232               0.000000
 MO|    245               0.147099               4.002770               0.000000
 MO|    246               0.149274               4.061957               0.000000
 MO|    247               0.151817               4.131161               0.000000
 MO|    248               0.152566               4.151541               0.000000
 MO|    249               0.154216               4.196423               0.000000
 MO|    250               0.158613               4.316088               0.000000
 MO|    251               0.158688               4.318116               0.000000
 MO|    252               0.159800               4.348388               0.000000
 MO|    253               0.161122               4.384357               0.000000
 MO|    254               0.163535               4.450007               0.000000
 MO|    255               0.165482               4.503008               0.000000
 MO|    256               0.166096               4.519696               0.000000
 MO|    257               0.174090               4.737221               0.000000
 MO|    258               0.176715               4.808663               0.000000
 MO|    259               0.176975               4.815727               0.000000
 MO|    260               0.184266               5.014135               0.000000
 MO|    261               0.186981               5.088020               0.000000
 MO|    262               0.187098               5.091207               0.000000
 MO|    263               0.190064               5.171906               0.000000
 MO|    264               0.191443               5.209430               0.000000
 MO|    265               0.192551               5.239582               0.000000
 MO|    266               0.192909               5.249313               0.000000
 MO|    267               0.196406               5.344490               0.000000
 MO|    268               0.197677               5.379065               0.000000
 MO|    269               0.200997               5.469396               0.000000
 MO|    270               0.202664               5.514775               0.000000
 MO|    271               0.205614               5.595030               0.000000
 MO|    272               0.205623               5.595275               0.000000
 MO|    273               0.205897               5.602746               0.000000
 MO|    274               0.208488               5.673239               0.000000
 MO|    275               0.210901               5.738909               0.000000
 MO|    276               0.211883               5.765642               0.000000
 MO|    277               0.217884               5.928917               0.000000
 MO|    278               0.219240               5.965822               0.000000
 MO|    279               0.219504               5.973010               0.000000
 MO|    280               0.221756               6.034284               0.000000
 MO| Sum:                                                             360.000000
 MO| E(Fermi):           -0.096263 a.u.         -2.619463 eV
 MO| Band gap:            0.070108 a.u.          1.907739 eV

    21 Broy./Diag. 0.40E+00    0.4     0.00002857     -2121.4696260886  1.70E-03
  Decoupling Energy:                                              -0.0000204455

 MO| EIGENVALUES AND OCCUPATION NUMBERS AFTER SCF STEP 21
 MO|
 MO|  Index      Eigenvalue [a.u.]        Eigenvalue [eV]             Occupation
 MO|      1              -9.798714            -266.636556               2.000000
 MO|      2              -9.798713            -266.636545               2.000000
 MO|      3              -9.798699            -266.636157               2.000000
 MO|      4              -9.798699            -266.636154               2.000000
 MO|      5              -9.797564            -266.605276               2.000000
 MO|      6              -9.797564            -266.605264               2.000000
 MO|      7              -9.796106            -266.565606               2.000000
 MO|      8              -9.796104            -266.565542               2.000000
 MO|      9              -9.796100            -266.565440               2.000000
 MO|     10              -9.796069            -266.564593               2.000000
 MO|     11              -9.796066            -266.564509               2.000000
 MO|     12              -9.795941            -266.561108               2.000000
 MO|     13              -9.795851            -266.558664               2.000000
 MO|     14              -9.795851            -266.558654               2.000000
 MO|     15              -9.795807            -266.557457               2.000000
 MO|     16              -9.795807            -266.557451               2.000000
 MO|     17              -9.795548            -266.550429               2.000000
 MO|     18              -9.795500            -266.549116               2.000000
 MO|     19              -9.795462            -266.548088               2.000000
 MO|     20              -9.795449            -266.547723               2.000000
 MO|     21              -9.795347            -266.544954               2.000000
 MO|     22              -9.795336            -266.544645               2.000000
 MO|     23              -9.795321            -266.544236               2.000000
 MO|     24              -9.795317            -266.544140               2.000000
 MO|     25              -9.795145            -266.539449               2.000000
 MO|     26              -9.795139            -266.539292               2.000000
 MO|     27              -9.795103            -266.538313               2.000000
 MO|     28              -9.795045            -266.536725               2.000000
 MO|     29              -9.795034            -266.536427               2.000000
 MO|     30              -9.794988            -266.535174               2.000000
 MO|     31              -9.794578            -266.524023               2.000000
 MO|     32              -9.794566            -266.523702               2.000000
 MO|     33              -9.794564            -266.523638               2.000000
 MO|     34              -9.794551            -266.523287               2.000000
 MO|     35              -9.787649            -266.335484               2.000000
 MO|     36              -9.787649            -266.335465               2.000000
 MO|     37              -9.787476            -266.330777               2.000000
 MO|     38              -9.787476            -266.330776               2.000000
 MO|     39              -9.787448            -266.330006               2.000000
 MO|     40              -9.787448            -266.330001               2.000000
 MO|     41              -9.786121            -266.293893               2.000000
 MO|     42              -9.786120            -266.293874               2.000000
 MO|     43              -9.786119            -266.293847               2.000000
 MO|     44              -9.786118            -266.293822               2.000000
 MO|     45              -9.784350            -266.245716               2.000000
 MO|     46              -9.784348            -266.245640               2.000000
 MO|     47              -9.784324            -266.245005               2.000000
 MO|     48              -9.784320            -266.244893               2.000000
 MO|     49              -9.783988            -266.235862               2.000000
 MO|     50              -9.783976            -266.235537               2.000000
 MO|     51              -9.783906            -266.233629               2.000000
 MO|     52              -9.783900            -266.233463               2.000000
 MO|     53              -9.781371            -266.164646               2.000000
 MO|     54              -9.781371            -266.164639               2.000000
 MO|     55              -9.781371            -266.164635               2.000000
 MO|     56              -9.781371            -266.164631               2.000000
 MO|     57              -0.842937             -22.937483               2.000000
 MO|     58              -0.835324             -22.730333               2.000000
 MO|     59              -0.822220             -22.373742               2.000000
 MO|     60              -0.810980             -22.067887               2.000000
 MO|     61              -0.804551             -21.892937               2.000000
 MO|     62              -0.802249             -21.830317               2.000000
 MO|     63              -0.788415             -21.453870               2.000000
 MO|     64              -0.776194             -21.121316               2.000000
 MO|     65              -0.773159             -21.038724               2.000000
 MO|     66              -0.759104             -20.656281               2.000000
 MO|     67              -0.751841             -20.458624               2.000000
 MO|     68              -0.749270             -20.388675               2.000000
 MO|     69              -0.741404             -20.174628               2.000000
 MO|     70              -0.737410             -20.065950               2.000000
 MO|     71              -0.725021             -19.728836               2.000000
 MO|     72              -0.712695             -19.393429               2.000000
 MO|     73              -0.709635             -19.310164               2.000000
 MO|     74              -0.694466             -18.897391               2.000000
 MO|     75              -0.687099             -18.696908               2.000000
 MO|     76              -0.686222             -18.673054               2.000000
 MO|     77              -0.680111             -18.506766               2.000000
 MO|     78              -0.678202             -18.454811               2.000000
 MO|     79              -0.671705             -18.278020               2.000000
 MO|     80              -0.670081             -18.233838               2.000000
 MO|     81              -0.662490             -18.027257               2.000000
 MO|     82              -0.641463             -17.455088               2.000000
 MO|     83              -0.640440             -17.427271               2.000000
 MO|     84              -0.615419             -16.746413               2.000000
 MO|     85              -0.614768             -16.728698               2.000000
 MO|     86              -0.600852             -16.350024               2.000000
 MO|     87              -0.595410             -16.201926               2.000000
 MO|     88              -0.583670             -15.882461               2.000000
 MO|     89              -0.582427             -15.848637               2.000000
 MO|     90              -0.580015             -15.783007               2.000000
 MO|     91              -0.575328             -15.655477               2.000000
 MO|     92              -0.573514             -15.606106               2.000000
 MO|     93              -0.563710             -15.339326               2.000000
 MO|     94              -0.548257             -14.918842               2.000000
 MO|     95              -0.546505             -14.871165               2.000000
 MO|     96              -0.523294             -14.239560               2.000000
 MO|     97              -0.521976             -14.203684               2.000000
 MO|     98              -0.516996             -14.068188               2.000000
 MO|     99              -0.516206             -14.046690               2.000000
 MO|    100              -0.502089             -13.662546               2.000000
 MO|    101              -0.496910             -13.521598               2.000000
 MO|    102              -0.495364             -13.479528               2.000000
 MO|    103              -0.490651             -13.351290               2.000000
 MO|    104              -0.480206             -13.067062               2.000000
 MO|    105              -0.474584             -12.914080               2.000000
 MO|    106              -0.470283             -12.797051               2.000000
 MO|    107              -0.459240             -12.496548               2.000000
 MO|    108              -0.455235             -12.387580               2.000000
 MO|    109              -0.449308             -12.226296               2.000000
 MO|    110              -0.438788             -11.940035               2.000000
 MO|    111              -0.434166             -11.814246               2.000000
 MO|    112              -0.432863             -11.778800               2.000000
 MO|    113              -0.428464             -11.659108               2.000000
 MO|    114              -0.426409             -11.603188               2.000000
 MO|    115              -0.420761             -11.449491               2.000000
 MO|    116              -0.410724             -11.176365               2.000000
 MO|    117              -0.410703             -11.175797               2.000000
 MO|    118              -0.407793             -11.096614               2.000000
 MO|    119              -0.406884             -11.071866               2.000000
 MO|    120              -0.405936             -11.046076               2.000000
 MO|    121              -0.405834             -11.043300               2.000000
 MO|    122              -0.399664             -10.875422               2.000000
 MO|    123              -0.394099             -10.723968               2.000000
 MO|    124              -0.394069             -10.723165               2.000000
 MO|    125              -0.390535             -10.626994               2.000000
 MO|    126              -0.384946             -10.474922               2.000000
 MO|    127              -0.378311             -10.294373               2.000000
 MO|    128              -0.374947             -10.202826               2.000000
 MO|    129              -0.373872             -10.173565               2.000000
 MO|    130              -0.372635             -10.139912               2.000000
 MO|    131              -0.371855             -10.118701               2.000000
 MO|    132              -0.366589              -9.975389               2.000000
 MO|    133              -0.365972              -9.958612               2.000000
 MO|    134              -0.365476              -9.945112               2.000000
 MO|    135              -0.360753              -9.816591               2.000000
 MO|    136              -0.359733              -9.788826               2.000000
 MO|    137              -0.355069              -9.661916               2.000000
 MO|    138              -0.353720              -9.625209               2.000000
 MO|    139              -0.349510              -9.510643               2.000000
 MO|    140              -0.349459              -9.509257               2.000000
 MO|    141              -0.345984              -9.414710               2.000000
 MO|    142              -0.344206              -9.366323               2.000000
 MO|    143              -0.342901              -9.330822               2.000000
 MO|    144              -0.340778              -9.273048               2.000000
 MO|    145              -0.338087              -9.199815               2.000000
 MO|    146              -0.332923              -9.059307               2.000000
 MO|    147              -0.326744              -8.891143               2.000000
 MO|    148              -0.318800              -8.674998               2.000000
 MO|    149              -0.318144              -8.657129               2.000000
 MO|    150              -0.316374              -8.608969               2.000000
 MO|    151              -0.312434              -8.501761               2.000000
 MO|    152              -0.307406              -8.364945               2.000000
 MO|    153              -0.305628              -8.316556               2.000000
 MO|    154              -0.304366              -8.282220               2.000000
 MO|    155              -0.301938              -8.216151               2.000000
 MO|    156              -0.301835              -8.213353               2.000000
 MO|    157              -0.297887              -8.105926               2.000000
 MO|    158              -0.292074              -7.947726               2.000000
 MO|    159              -0.290362              -7.901144               2.000000
 MO|    160              -0.286546              -7.797308               2.000000
 MO|    161              -0.277416              -7.548873               2.000000
 MO|    162              -0.277084              -7.539832               2.000000
 MO|    163              -0.266338              -7.247418               2.000000
 MO|    164              -0.265454              -7.223380               2.000000
 MO|    165              -0.264046              -7.185068               2.000000
 MO|    166              -0.260637              -7.092291               2.000000
 MO|    167              -0.251790              -6.851553               2.000000
 MO|    168              -0.244973              -6.666041               2.000000
 MO|    169              -0.233368              -6.350256               2.000000
 MO|    170              -0.232147              -6.317035               2.000000
 MO|    171              -0.230365              -6.268557               2.000000
 MO|    172              -0.227472              -6.189820               2.000000
 MO|    173              -0.224061              -6.097002               2.000000
 MO|    174              -0.220023              -5.987121               2.000000
 MO|    175              -0.208700              -5.679019               2.000000
 MO|    176              -0.208068              -5.661815               2.000000
 MO|    177              -0.193273              -5.259232               2.000000
 MO|    178              -0.176946              -4.814946               2.000000
 MO|    179              -0.169891              -4.622980               2.000000
 MO|    180              -0.156281              -4.252609               2.000000
 MO|    181              -0.086173              -2.344874               0.000000
 MO|    182              -0.074156              -2.017877               0.000000
 MO|    183              -0.073907              -2.011109               0.000000
 MO|    184              -0.056039              -1.524886               0.000000
 MO|    185              -0.049718              -1.352902               0.000000
 MO|    186              -0.043865              -1.193622               0.000000
 MO|    187              -0.042059              -1.144484               0.000000
 MO|    188              -0.034687              -0.943873               0.000000
 MO|    189              -0.023097              -0.628512               0.000000
 MO|    190              -0.022593              -0.614781               0.000000
 MO|    191              -0.013614              -0.370453               0.000000
 MO|    192              -0.011768              -0.320234               0.000000
 MO|    193              -0.005002              -0.136105               0.000000
 MO|    194              -0.004361              -0.118669               0.000000
 MO|    195              -0.002025              -0.055111               0.000000
 MO|    196               0.001972               0.053670               0.000000
 MO|    197               0.003655               0.099454               0.000000
 MO|    198               0.007315               0.199063               0.000000
 MO|    199               0.008629               0.234797               0.000000
 MO|    200               0.011954               0.325284               0.000000
 MO|    201               0.015930               0.433471               0.000000
 MO|    202               0.022855               0.621922               0.000000
 MO|    203               0.026852               0.730682               0.000000
 MO|    204               0.026906               0.732160               0.000000
 MO|    205               0.035793               0.973966               0.000000
 MO|    206               0.038058               1.035604               0.000000
 MO|    207               0.038611               1.050670               0.000000
 MO|    208               0.039235               1.067633               0.000000
 MO|    209               0.047856               1.302230               0.000000
 MO|    210               0.053832               1.464841               0.000000
 MO|    211               0.054229               1.475640               0.000000
 MO|    212               0.054372               1.479546               0.000000
 MO|    213               0.056571               1.539379               0.000000
 MO|    214               0.059794               1.627084               0.000000
 MO|    215               0.064865               1.765075               0.000000
 MO|    216               0.065639               1.786125               0.000000
 MO|    217               0.071014               1.932383               0.000000
 MO|    218               0.072836               1.981974               0.000000
 MO|    219               0.074214               2.019477               0.000000
 MO|    220               0.075551               2.055860               0.000000
 MO|    221               0.077038               2.096297               0.000000
 MO|    222               0.078561               2.137752               0.000000
 MO|    223               0.086430               2.351884               0.000000
 MO|    224               0.090067               2.450856               0.000000
 MO|    225               0.090953               2.474950               0.000000
 MO|    226               0.091096               2.478841               0.000000
 MO|    227               0.091853               2.499442               0.000000
 MO|    228               0.095587               2.601053               0.000000
 MO|    229               0.098962               2.692897               0.000000
 MO|    230               0.100112               2.724185               0.000000
 MO|    231               0.102821               2.797895               0.000000
 MO|    232               0.107258               2.918647               0.000000
 MO|    233               0.109019               2.966557               0.000000
 MO|    234               0.114585               3.118026               0.000000
 MO|    235               0.115170               3.133928               0.000000
 MO|    236               0.119710               3.257466               0.000000
 MO|    237               0.121522               3.306778               0.000000
 MO|    238               0.123752               3.367456               0.000000
 MO|    239               0.125000               3.401421               0.000000
 MO|    240               0.129501               3.523902               0.000000
 MO|    241               0.131395               3.575440               0.000000
 MO|    242               0.136128               3.704226               0.000000
 MO|    243               0.141401               3.847720               0.000000
 MO|    244               0.147071               4.002006               0.000000
 MO|    245               0.147102               4.002854               0.000000
 MO|    246               0.149257               4.061491               0.000000
 MO|    247               0.151817               4.131159               0.000000
 MO|    248               0.152572               4.151694               0.000000
 MO|    249               0.154198               4.195944               0.000000
 MO|    250               0.158607               4.315928               0.000000
 MO|    251               0.158662               4.317410               0.000000
 MO|    252               0.159801               4.348418               0.000000
 MO|    253               0.161123               4.384380               0.000000
 MO|    254               0.163537               4.450063               0.000000
 MO|    255               0.165491               4.503245               0.000000
 MO|    256               0.166041               4.518196               0.000000
 MO|    257               0.174070               4.736672               0.000000
 MO|    258               0.176678               4.807649               0.000000
 MO|    259               0.176965               4.815457               0.000000
 MO|    260               0.184260               5.013964               0.000000
 MO|    261               0.186978               5.087927               0.000000
 MO|    262               0.187094               5.091075               0.000000
 MO|    263               0.190064               5.171906               0.000000
 MO|    264               0.191427               5.208992               0.000000
 MO|    265               0.192525               5.238862               0.000000
 MO|    266               0.192864               5.248094               0.000000
 MO|    267               0.196386               5.343944               0.000000
 MO|    268               0.197680               5.379146               0.000000
 MO|    269               0.200997               5.469412               0.000000
 MO|    270               0.202633               5.513921               0.000000
 MO|    271               0.205608               5.594879               0.000000
 MO|    272               0.205622               5.595262               0.000000
 MO|    273               0.205891               5.602572               0.000000
 MO|    274               0.208479               5.673000               0.000000
 MO|    275               0.210892               5.738665               0.000000
 MO|    276               0.211888               5.765754               0.000000
 MO|    277               0.217862               5.928313               0.000000
 MO|    278               0.219222               5.965341               0.000000
 MO|    279               0.219491               5.972649               0.000000
 MO|    280               0.221752               6.034166               0.000000
 MO| Sum:                                                             360.000000
 MO| E(Fermi):           -0.096270 a.u.         -2.619636 eV
 MO| Band gap:            0.070108 a.u.          1.907736 eV

    22 Broy./Diag. 0.40E+00    0.4     0.00001959     -2121.4687711692  8.55E-04
  Decoupling Energy:                                              -0.0000202522

 MO| EIGENVALUES AND OCCUPATION NUMBERS AFTER SCF STEP 22
 MO|
 MO|  Index      Eigenvalue [a.u.]        Eigenvalue [eV]             Occupation
 MO|      1              -9.798712            -266.636525               2.000000
 MO|      2              -9.798712            -266.636514               2.000000
 MO|      3              -9.798698            -266.636126               2.000000
 MO|      4              -9.798698            -266.636123               2.000000
 MO|      5              -9.797565            -266.605305               2.000000
 MO|      6              -9.797565            -266.605293               2.000000
 MO|      7              -9.796109            -266.565688               2.000000
 MO|      8              -9.796105            -266.565574               2.000000
 MO|      9              -9.796101            -266.565472               2.000000
 MO|     10              -9.796070            -266.564631               2.000000
 MO|     11              -9.796067            -266.564546               2.000000
 MO|     12              -9.795944            -266.561189               2.000000
 MO|     13              -9.795853            -266.558710               2.000000
 MO|     14              -9.795852            -266.558701               2.000000
 MO|     15              -9.795808            -266.557500               2.000000
 MO|     16              -9.795808            -266.557493               2.000000
 MO|     17              -9.795551            -266.550502               2.000000
 MO|     18              -9.795503            -266.549187               2.000000
 MO|     19              -9.795465            -266.548159               2.000000
 MO|     20              -9.795452            -266.547794               2.000000
 MO|     21              -9.795350            -266.545025               2.000000
 MO|     22              -9.795338            -266.544715               2.000000
 MO|     23              -9.795324            -266.544308               2.000000
 MO|     24              -9.795320            -266.544214               2.000000
 MO|     25              -9.795148            -266.539526               2.000000
 MO|     26              -9.795142            -266.539368               2.000000
 MO|     27              -9.795106            -266.538388               2.000000
 MO|     28              -9.795047            -266.536796               2.000000
 MO|     29              -9.795037            -266.536503               2.000000
 MO|     30              -9.794991            -266.535248               2.000000
 MO|     31              -9.794581            -266.524097               2.000000
 MO|     32              -9.794569            -266.523775               2.000000
 MO|     33              -9.794567            -266.523712               2.000000
 MO|     34              -9.794554            -266.523360               2.000000
 MO|     35              -9.787646            -266.335383               2.000000
 MO|     36              -9.787645            -266.335364               2.000000
 MO|     37              -9.787477            -266.330793               2.000000
 MO|     38              -9.787477            -266.330791               2.000000
 MO|     39              -9.787448            -266.330008               2.000000
 MO|     40              -9.787448            -266.330003               2.000000
 MO|     41              -9.786122            -266.293933               2.000000
 MO|     42              -9.786122            -266.293914               2.000000
 MO|     43              -9.786121            -266.293888               2.000000
 MO|     44              -9.786120            -266.293862               2.000000
 MO|     45              -9.784352            -266.245765               2.000000
 MO|     46              -9.784349            -266.245688               2.000000
 MO|     47              -9.784326            -266.245053               2.000000
 MO|     48              -9.784322            -266.244941               2.000000
 MO|     49              -9.783990            -266.235913               2.000000
 MO|     50              -9.783978            -266.235587               2.000000
 MO|     51              -9.783908            -266.233680               2.000000
 MO|     52              -9.783902            -266.233514               2.000000
 MO|     53              -9.781374            -266.164713               2.000000
 MO|     54              -9.781373            -266.164706               2.000000
 MO|     55              -9.781373            -266.164702               2.000000
 MO|     56              -9.781373            -266.164698               2.000000
 MO|     57              -0.842941             -22.937599               2.000000
 MO|     58              -0.835328             -22.730421               2.000000
 MO|     59              -0.822223             -22.373819               2.000000
 MO|     60              -0.810984             -22.068003               2.000000
 MO|     61              -0.804554             -21.893016               2.000000
 MO|     62              -0.802253             -21.830416               2.000000
 MO|     63              -0.788419             -21.453959               2.000000
 MO|     64              -0.776197             -21.121387               2.000000
 MO|     65              -0.773162             -21.038820               2.000000
 MO|     66              -0.759109             -20.656394               2.000000
 MO|     67              -0.751844             -20.458720               2.000000
 MO|     68              -0.749272             -20.388729               2.000000
 MO|     69              -0.741407             -20.174708               2.000000
 MO|     70              -0.737414             -20.066045               2.000000
 MO|     71              -0.725025             -19.728938               2.000000
 MO|     72              -0.712698             -19.393497               2.000000
 MO|     73              -0.709639             -19.310248               2.000000
 MO|     74              -0.694470             -18.897498               2.000000
 MO|     75              -0.687102             -18.697008               2.000000
 MO|     76              -0.686225             -18.673136               2.000000
 MO|     77              -0.680114             -18.506832               2.000000
 MO|     78              -0.678205             -18.454885               2.000000
 MO|     79              -0.671708             -18.278112               2.000000
 MO|     80              -0.670085             -18.233937               2.000000
 MO|     81              -0.662493             -18.027349               2.000000
 MO|     82              -0.641466             -17.455180               2.000000
 MO|     83              -0.640444             -17.427354               2.000000
 MO|     84              -0.615422             -16.746475               2.000000
 MO|     85              -0.614770             -16.728752               2.000000
 MO|     86              -0.600855             -16.350106               2.000000
 MO|     87              -0.595414             -16.202027               2.000000
 MO|     88              -0.583674             -15.882569               2.000000
 MO|     89              -0.582430             -15.848730               2.000000
 MO|     90              -0.580018             -15.783094               2.000000
 MO|     91              -0.575331             -15.655559               2.000000
 MO|     92              -0.573517             -15.606201               2.000000
 MO|     93              -0.563712             -15.339382               2.000000
 MO|     94              -0.548260             -14.918916               2.000000
 MO|     95              -0.546508             -14.871242               2.000000
 MO|     96              -0.523297             -14.239648               2.000000
 MO|     97              -0.521979             -14.203770               2.000000
 MO|     98              -0.516999             -14.068246               2.000000
 MO|     99              -0.516209             -14.046772               2.000000
 MO|    100              -0.502092             -13.662622               2.000000
 MO|    101              -0.496913             -13.521692               2.000000
 MO|    102              -0.495367             -13.479620               2.000000
 MO|    103              -0.490654             -13.351383               2.000000
 MO|    104              -0.480209             -13.067140               2.000000
 MO|    105              -0.474587             -12.914163               2.000000
 MO|    106              -0.470285             -12.797105               2.000000
 MO|    107              -0.459242             -12.496623               2.000000
 MO|    108              -0.455238             -12.387653               2.000000
 MO|    109              -0.449312             -12.226389               2.000000
 MO|    110              -0.438792             -11.940125               2.000000
 MO|    111              -0.434169             -11.814327               2.000000
 MO|    112              -0.432866             -11.778896               2.000000
 MO|    113              -0.428467             -11.659177               2.000000
 MO|    114              -0.426412             -11.603257               2.000000
 MO|    115              -0.420764             -11.449584               2.000000
 MO|    116              -0.410726             -11.176432               2.000000
 MO|    117              -0.410706             -11.175870               2.000000
 MO|    118              -0.407796             -11.096701               2.000000
 MO|    119              -0.406884             -11.071883               2.000000
 MO|    120              -0.405936             -11.046073               2.000000
 MO|    121              -0.405837             -11.043378               2.000000
 MO|    122              -0.399667             -10.875494               2.000000
 MO|    123              -0.394101             -10.724024               2.000000
 MO|    124              -0.394072             -10.723243               2.000000
 MO|    125              -0.390539             -10.627102               2.000000
 MO|    126              -0.384950             -10.475010               2.000000
 MO|    127              -0.378314             -10.294459               2.000000
 MO|    128              -0.374950             -10.202904               2.000000
 MO|    129              -0.373875             -10.173643               2.000000
 MO|    130              -0.372637             -10.139969               2.000000
 MO|    131              -0.371859             -10.118796               2.000000
 MO|    132              -0.366592              -9.975483               2.000000
 MO|    133              -0.365976              -9.958708               2.000000
 MO|    134              -0.365480              -9.945209               2.000000
 MO|    135              -0.360755              -9.816636               2.000000
 MO|    136              -0.359738              -9.788956               2.000000
 MO|    137              -0.355072              -9.661993               2.000000
 MO|    138              -0.353723              -9.625298               2.000000
 MO|    139              -0.349513              -9.510720               2.000000
 MO|    140              -0.349463              -9.509368               2.000000
 MO|    141              -0.345987              -9.414796               2.000000
 MO|    142              -0.344209              -9.366407               2.000000
 MO|    143              -0.342904              -9.330899               2.000000
 MO|    144              -0.340781              -9.273131               2.000000
 MO|    145              -0.338090              -9.199892               2.000000
 MO|    146              -0.332927              -9.059408               2.000000
 MO|    147              -0.326747              -8.891226               2.000000
 MO|    148              -0.318803              -8.675083               2.000000
 MO|    149              -0.318147              -8.657208               2.000000
 MO|    150              -0.316376              -8.609040               2.000000
 MO|    151              -0.312438              -8.501865               2.000000
 MO|    152              -0.307409              -8.365027               2.000000
 MO|    153              -0.305631              -8.316631               2.000000
 MO|    154              -0.304370              -8.282316               2.000000
 MO|    155              -0.301943              -8.216276               2.000000
 MO|    156              -0.301838              -8.213425               2.000000
 MO|    157              -0.297891              -8.106021               2.000000
 MO|    158              -0.292078              -7.947839               2.000000
 MO|    159              -0.290366              -7.901249               2.000000
 MO|    160              -0.286549              -7.797385               2.000000
 MO|    161              -0.277418              -7.548937               2.000000
 MO|    162              -0.277088              -7.539937               2.000000
 MO|    163              -0.266341              -7.247499               2.000000
 MO|    164              -0.265458              -7.223486               2.000000
 MO|    165              -0.264050              -7.185178               2.000000
 MO|    166              -0.260640              -7.092384               2.000000
 MO|    167              -0.251794              -6.851651               2.000000
 MO|    168              -0.244976              -6.666135               2.000000
 MO|    169              -0.233371              -6.350357               2.000000
 MO|    170              -0.232151              -6.317145               2.000000
 MO|    171              -0.230370              -6.268676               2.000000
 MO|    172              -0.227475              -6.189912               2.000000
 MO|    173              -0.224064              -6.097093               2.000000
 MO|    174              -0.220027              -5.987242               2.000000
 MO|    175              -0.208704              -5.679118               2.000000
 MO|    176              -0.208072              -5.661924               2.000000
 MO|    177              -0.193276              -5.259310               2.000000
 MO|    178              -0.176950              -4.815062               2.000000
 MO|    179              -0.169894              -4.623054               2.000000
 MO|    180              -0.156284              -4.252709               2.000000
 MO|    181              -0.086177              -2.344982               0.000000
 MO|    182              -0.074160              -2.017990               0.000000
 MO|    183              -0.073910              -2.011191               0.000000
 MO|    184              -0.056041              -1.524965               0.000000
 MO|    185              -0.049722              -1.353018               0.000000
 MO|    186              -0.043869              -1.193744               0.000000
 MO|    187              -0.042063              -1.144580               0.000000
 MO|    188              -0.034690              -0.943966               0.000000
 MO|    189              -0.023102              -0.628630               0.000000
 MO|    190              -0.022596              -0.614874               0.000000
 MO|    191              -0.013618              -0.370565               0.000000
 MO|    192              -0.011773              -0.320349               0.000000
 MO|    193              -0.005006              -0.136230               0.000000
 MO|    194              -0.004367              -0.118822               0.000000
 MO|    195              -0.002029              -0.055213               0.000000
 MO|    196               0.001974               0.053721               0.000000
 MO|    197               0.003653               0.099410               0.000000
 MO|    198               0.007321               0.199218               0.000000
 MO|    199               0.008624               0.234659               0.000000
 MO|    200               0.011958               0.325394               0.000000
 MO|    201               0.015933               0.433563               0.000000
 MO|    202               0.022864               0.622152               0.000000
 MO|    203               0.026848               0.730572               0.000000
 MO|    204               0.026907               0.732168               0.000000
 MO|    205               0.035800               0.974181               0.000000
 MO|    206               0.038049               1.035378               0.000000
 MO|    207               0.038607               1.050554               0.000000
 MO|    208               0.039236               1.067675               0.000000
 MO|    209               0.047858               1.302279               0.000000
 MO|    210               0.053834               1.464911               0.000000
 MO|    211               0.054239               1.475919               0.000000
 MO|    212               0.054364               1.479326               0.000000
 MO|    213               0.056575               1.539496               0.000000
 MO|    214               0.059788               1.626921               0.000000
 MO|    215               0.064857               1.764861               0.000000
 MO|    216               0.065650               1.786427               0.000000
 MO|    217               0.071004               1.932111               0.000000
 MO|    218               0.072831               1.981845               0.000000
 MO|    219               0.074218               2.019585               0.000000
 MO|    220               0.075549               2.055794               0.000000
 MO|    221               0.077030               2.096092               0.000000
 MO|    222               0.078552               2.137513               0.000000
 MO|    223               0.086438               2.352090               0.000000
 MO|    224               0.090063               2.450750               0.000000
 MO|    225               0.090945               2.474736               0.000000
 MO|    226               0.091101               2.478972               0.000000
 MO|    227               0.091852               2.499430               0.000000
 MO|    228               0.095587               2.601049               0.000000
 MO|    229               0.098963               2.692915               0.000000
 MO|    230               0.100106               2.724010               0.000000
 MO|    231               0.102811               2.797640               0.000000
 MO|    232               0.107265               2.918840               0.000000
 MO|    233               0.109020               2.966598               0.000000
 MO|    234               0.114590               3.118148               0.000000
 MO|    235               0.115172               3.133981               0.000000
 MO|    236               0.119705               3.257327               0.000000
 MO|    237               0.121518               3.306676               0.000000
 MO|    238               0.123745               3.367268               0.000000
 MO|    239               0.124990               3.401150               0.000000
 MO|    240               0.129506               3.524028               0.000000
 MO|    241               0.131398               3.575522               0.000000
 MO|    242               0.136131               3.704314               0.000000
 MO|    243               0.141405               3.847832               0.000000
 MO|    244               0.147068               4.001927               0.000000
 MO|    245               0.147104               4.002910               0.000000
 MO|    246               0.149248               4.061247               0.000000
 MO|    247               0.151818               4.131180               0.000000
 MO|    248               0.152575               4.151769               0.000000
 MO|    249               0.154192               4.195785               0.000000
 MO|    250               0.158604               4.315825               0.000000
 MO|    251               0.158649               4.317063               0.000000
 MO|    252               0.159805               4.348512               0.000000
 MO|    253               0.161125               4.384438               0.000000
 MO|    254               0.163541               4.450176               0.000000
 MO|    255               0.165496               4.503378               0.000000
 MO|    256               0.166016               4.517524               0.000000
 MO|    257               0.174061               4.736452               0.000000
 MO|    258               0.176665               4.807292               0.000000
 MO|    259               0.176958               4.815282               0.000000
 MO|    260               0.184255               5.013845               0.000000
 MO|    261               0.186977               5.087904               0.000000
 MO|    262               0.187091               5.091003               0.000000
 MO|    263               0.190063               5.171889               0.000000
 MO|    264               0.191419               5.208774               0.000000
 MO|    265               0.192516               5.238635               0.000000
 MO|    266               0.192844               5.247561               0.000000
 MO|    267               0.196379               5.343745               0.000000
 MO|    268               0.197686               5.379313               0.000000
 MO|    269               0.200997               5.469410               0.000000
 MO|    270               0.202622               5.513612               0.000000
 MO|    271               0.205605               5.594808               0.000000
 MO|    272               0.205624               5.595320               0.000000
 MO|    273               0.205886               5.602439               0.000000
 MO|    274               0.208475               5.672907               0.000000
 MO|    275               0.210888               5.738559               0.000000
 MO|    276               0.211892               5.765884               0.000000
 MO|    277               0.217857               5.928182               0.000000
 MO|    278               0.219216               5.965168               0.000000
 MO|    279               0.219484               5.972477               0.000000
 MO|    280               0.221750               6.034132               0.000000
 MO| Sum:                                                             360.000000
 MO| E(Fermi):           -0.096274 a.u.         -2.619744 eV
 MO| Band gap:            0.070108 a.u.          1.907727 eV

    23 Broy./Diag. 0.40E+00    0.4     0.00001135     -2121.4691178194 -3.47E-04
  Decoupling Energy:                                              -0.0000201668

 MO| EIGENVALUES AND OCCUPATION NUMBERS AFTER SCF STEP 23
 MO|
 MO|  Index      Eigenvalue [a.u.]        Eigenvalue [eV]             Occupation
 MO|      1              -9.798711            -266.636495               2.000000
 MO|      2              -9.798711            -266.636484               2.000000
 MO|      3              -9.798697            -266.636096               2.000000
 MO|      4              -9.798697            -266.636092               2.000000
 MO|      5              -9.797567            -266.605351               2.000000
 MO|      6              -9.797566            -266.605339               2.000000
 MO|      7              -9.796112            -266.565760               2.000000
 MO|      8              -9.796105            -266.565564               2.000000
 MO|      9              -9.796101            -266.565462               2.000000
 MO|     10              -9.796070            -266.564623               2.000000
 MO|     11              -9.796067            -266.564538               2.000000
 MO|     12              -9.795946            -266.561259               2.000000
 MO|     13              -9.795853            -266.558704               2.000000
 MO|     14              -9.795852            -266.558694               2.000000
 MO|     15              -9.795808            -266.557492               2.000000
 MO|     16              -9.795808            -266.557486               2.000000
 MO|     17              -9.795553            -266.550552               2.000000
 MO|     18              -9.795505            -266.549235               2.000000
 MO|     19              -9.795467            -266.548200               2.000000
 MO|     20              -9.795453            -266.547834               2.000000
 MO|     21              -9.795352            -266.545075               2.000000
 MO|     22              -9.795340            -266.544761               2.000000
 MO|     23              -9.795325            -266.544358               2.000000
 MO|     24              -9.795322            -266.544269               2.000000
 MO|     25              -9.795149            -266.539566               2.000000
 MO|     26              -9.795143            -266.539398               2.000000
 MO|     27              -9.795108            -266.538443               2.000000
 MO|     28              -9.795049            -266.536846               2.000000
 MO|     29              -9.795038            -266.536543               2.000000
 MO|     30              -9.794992            -266.535294               2.000000
 MO|     31              -9.794582            -266.524118               2.000000
 MO|     32              -9.794570            -266.523796               2.000000
 MO|     33              -9.794567            -266.523733               2.000000
 MO|     34              -9.794554            -266.523381               2.000000
 MO|     35              -9.787641            -266.335252               2.000000
 MO|     36              -9.787640            -266.335233               2.000000
 MO|     37              -9.787473            -266.330697               2.000000
 MO|     38              -9.787473            -266.330695               2.000000
 MO|     39              -9.787444            -266.329908               2.000000
 MO|     40              -9.787444            -266.329903               2.000000
 MO|     41              -9.786121            -266.293896               2.000000
 MO|     42              -9.786120            -266.293877               2.000000
 MO|     43              -9.786119            -266.293850               2.000000
 MO|     44              -9.786118            -266.293825               2.000000
 MO|     45              -9.784352            -266.245767               2.000000
 MO|     46              -9.784350            -266.245691               2.000000
 MO|     47              -9.784326            -266.245057               2.000000
 MO|     48              -9.784322            -266.244944               2.000000
 MO|     49              -9.783990            -266.235910               2.000000
 MO|     50              -9.783978            -266.235584               2.000000
 MO|     51              -9.783908            -266.233677               2.000000
 MO|     52              -9.783902            -266.233510               2.000000
 MO|     53              -9.781372            -266.164656               2.000000
 MO|     54              -9.781371            -266.164649               2.000000
 MO|     55              -9.781371            -266.164645               2.000000
 MO|     56              -9.781371            -266.164642               2.000000
 MO|     57              -0.842944             -22.937666               2.000000
 MO|     58              -0.835329             -22.730458               2.000000
 MO|     59              -0.822224             -22.373848               2.000000
 MO|     60              -0.810986             -22.068059               2.000000
 MO|     61              -0.804555             -21.893045               2.000000
 MO|     62              -0.802254             -21.830448               2.000000
 MO|     63              -0.788419             -21.453980               2.000000
 MO|     64              -0.776198             -21.121410               2.000000
 MO|     65              -0.773164             -21.038849               2.000000
 MO|     66              -0.759110             -20.656440               2.000000
 MO|     67              -0.751845             -20.458740               2.000000
 MO|     68              -0.749272             -20.388734               2.000000
 MO|     69              -0.741407             -20.174713               2.000000
 MO|     70              -0.737415             -20.066077               2.000000
 MO|     71              -0.725026             -19.728968               2.000000
 MO|     72              -0.712699             -19.393517               2.000000
 MO|     73              -0.709639             -19.310264               2.000000
 MO|     74              -0.694472             -18.897536               2.000000
 MO|     75              -0.687104             -18.697041               2.000000
 MO|     76              -0.686225             -18.673144               2.000000
 MO|     77              -0.680113             -18.506821               2.000000
 MO|     78              -0.678206             -18.454911               2.000000
 MO|     79              -0.671709             -18.278136               2.000000
 MO|     80              -0.670086             -18.233969               2.000000
 MO|     81              -0.662494             -18.027370               2.000000
 MO|     82              -0.641467             -17.455207               2.000000
 MO|     83              -0.640444             -17.427370               2.000000
 MO|     84              -0.615421             -16.746461               2.000000
 MO|     85              -0.614769             -16.728723               2.000000
 MO|     86              -0.600856             -16.350130               2.000000
 MO|     87              -0.595415             -16.202060               2.000000
 MO|     88              -0.583675             -15.882612               2.000000
 MO|     89              -0.582431             -15.848750               2.000000
 MO|     90              -0.580019             -15.783115               2.000000
 MO|     91              -0.575332             -15.655568               2.000000
 MO|     92              -0.573518             -15.606226               2.000000
 MO|     93              -0.563712             -15.339384               2.000000
 MO|     94              -0.548260             -14.918914               2.000000
 MO|     95              -0.546508             -14.871240               2.000000
 MO|     96              -0.523298             -14.239664               2.000000
 MO|     97              -0.521979             -14.203778               2.000000
 MO|     98              -0.516999             -14.068252               2.000000
 MO|     99              -0.516209             -14.046774               2.000000
 MO|    100              -0.502092             -13.662614               2.000000
 MO|    101              -0.496914             -13.521710               2.000000
 MO|    102              -0.495368             -13.479636               2.000000
 MO|    103              -0.490655             -13.351406               2.000000
 MO|    104              -0.480208             -13.067137               2.000000
 MO|    105              -0.474587             -12.914160               2.000000
 MO|    106              -0.470285             -12.797092               2.000000
 MO|    107              -0.459243             -12.496629               2.000000
 MO|    108              -0.455238             -12.387646               2.000000
 MO|    109              -0.449312             -12.226401               2.000000
 MO|    110              -0.438792             -11.940127               2.000000
 MO|    111              -0.434169             -11.814329               2.000000
 MO|    112              -0.432867             -11.778919               2.000000
 MO|    113              -0.428467             -11.659169               2.000000
 MO|    114              -0.426411             -11.603237               2.000000
 MO|    115              -0.420764             -11.449582               2.000000
 MO|    116              -0.410726             -11.176412               2.000000
 MO|    117              -0.410706             -11.175867               2.000000
 MO|    118              -0.407797             -11.096708               2.000000
 MO|    119              -0.406883             -11.071851               2.000000
 MO|    120              -0.405934             -11.046022               2.000000
 MO|    121              -0.405837             -11.043385               2.000000
 MO|    122              -0.399667             -10.875494               2.000000
 MO|    123              -0.394099             -10.723992               2.000000
 MO|    124              -0.394072             -10.723237               2.000000
 MO|    125              -0.390541             -10.627160               2.000000
 MO|    126              -0.384950             -10.475028               2.000000
 MO|    127              -0.378315             -10.294473               2.000000
 MO|    128              -0.374950             -10.202902               2.000000
 MO|    129              -0.373874             -10.173641               2.000000
 MO|    130              -0.372637             -10.139963               2.000000
 MO|    131              -0.371860             -10.118835               2.000000
 MO|    132              -0.366593              -9.975509               2.000000
 MO|    133              -0.365977              -9.958729               2.000000
 MO|    134              -0.365480              -9.945228               2.000000
 MO|    135              -0.360754              -9.816623               2.000000
 MO|    136              -0.359740              -9.789021               2.000000
 MO|    137              -0.355072              -9.661999               2.000000
 MO|    138              -0.353723              -9.625306               2.000000
 MO|    139              -0.349512              -9.510709               2.000000
 MO|    140              -0.349464              -9.509407               2.000000
 MO|    141              -0.345989              -9.414827               2.000000
 MO|    142              -0.344209              -9.366403               2.000000
 MO|    143              -0.342904              -9.330885               2.000000
 MO|    144              -0.340781              -9.273135               2.000000
 MO|    145              -0.338090              -9.199888               2.000000
 MO|    146              -0.332928              -9.059439               2.000000
 MO|    147              -0.326746              -8.891207               2.000000
 MO|    148              -0.318804              -8.675107               2.000000
 MO|    149              -0.318146              -8.657196               2.000000
 MO|    150              -0.316376              -8.609020               2.000000
 MO|    151              -0.312439              -8.501898               2.000000
 MO|    152              -0.307409              -8.365032               2.000000
 MO|    153              -0.305630              -8.316621               2.000000
 MO|    154              -0.304370              -8.282340               2.000000
 MO|    155              -0.301945              -8.216330               2.000000
 MO|    156              -0.301837              -8.213412               2.000000
 MO|    157              -0.297891              -8.106018               2.000000
 MO|    158              -0.292079              -7.947882               2.000000
 MO|    159              -0.290367              -7.901281               2.000000
 MO|    160              -0.286549              -7.797383               2.000000
 MO|    161              -0.277418              -7.548939               2.000000
 MO|    162              -0.277089              -7.539973               2.000000
 MO|    163              -0.266341              -7.247501               2.000000
 MO|    164              -0.265460              -7.223536               2.000000
 MO|    165              -0.264052              -7.185214               2.000000
 MO|    166              -0.260642              -7.092424               2.000000
 MO|    167              -0.251795              -6.851678               2.000000
 MO|    168              -0.244977              -6.666156               2.000000
 MO|    169              -0.233373              -6.350397               2.000000
 MO|    170              -0.232152              -6.317186               2.000000
 MO|    171              -0.230371              -6.268726               2.000000
 MO|    172              -0.227476              -6.189932               2.000000
 MO|    173              -0.224065              -6.097111               2.000000
 MO|    174              -0.220029              -5.987298               2.000000
 MO|    175              -0.208705              -5.679146               2.000000
 MO|    176              -0.208073              -5.661964               2.000000
 MO|    177              -0.193276              -5.259316               2.000000
 MO|    178              -0.176952              -4.815109               2.000000
 MO|    179              -0.169894              -4.623058               2.000000
 MO|    180              -0.156286              -4.252746               2.000000
 MO|    181              -0.086178              -2.345031               0.000000
 MO|    182              -0.074161              -2.018033               0.000000
 MO|    183              -0.073910              -2.011205               0.000000
 MO|    184              -0.056042              -1.524968               0.000000
 MO|    185              -0.049724              -1.353061               0.000000
 MO|    186              -0.043871              -1.193796               0.000000
 MO|    187              -0.042063              -1.144601               0.000000
 MO|    188              -0.034691              -0.943989               0.000000
 MO|    189              -0.023103              -0.628671               0.000000
 MO|    190              -0.022597              -0.614897               0.000000
 MO|    191              -0.013620              -0.370609               0.000000
 MO|    192              -0.011774              -0.320396               0.000000
 MO|    193              -0.005008              -0.136282               0.000000
 MO|    194              -0.004368              -0.118868               0.000000
 MO|    195              -0.002030              -0.055241               0.000000
 MO|    196               0.001971               0.053645               0.000000
 MO|    197               0.003649               0.099292               0.000000
 MO|    198               0.007323               0.199271               0.000000
 MO|    199               0.008622               0.234618               0.000000
 MO|    200               0.011960               0.325435               0.000000
 MO|    201               0.015932               0.433542               0.000000
 MO|    202               0.022868               0.622256               0.000000
 MO|    203               0.026846               0.730528               0.000000
 MO|    204               0.026904               0.732102               0.000000
 MO|    205               0.035803               0.974260               0.000000
 MO|    206               0.038047               1.035308               0.000000
 MO|    207               0.038606               1.050512               0.000000
 MO|    208               0.039236               1.067660               0.000000
 MO|    209               0.047857               1.302266               0.000000
 MO|    210               0.053837               1.464982               0.000000
 MO|    211               0.054246               1.476103               0.000000
 MO|    212               0.054362               1.479252               0.000000
 MO|    213               0.056578               1.539558               0.000000
 MO|    214               0.059786               1.626854               0.000000
 MO|    215               0.064852               1.764721               0.000000
 MO|    216               0.065656               1.786599               0.000000
 MO|    217               0.070998               1.931953               0.000000
 MO|    218               0.072829               1.981769               0.000000
 MO|    219               0.074219               2.019610               0.000000
 MO|    220               0.075548               2.055775               0.000000
 MO|    221               0.077027               2.096011               0.000000
 MO|    222               0.078547               2.137362               0.000000
 MO|    223               0.086442               2.352213               0.000000
 MO|    224               0.090062               2.450698               0.000000
 MO|    225               0.090941               2.474637               0.000000
 MO|    226               0.091101               2.478986               0.000000
 MO|    227               0.091849               2.499348               0.000000
 MO|    228               0.095583               2.600949               0.000000
 MO|    229               0.098963               2.692915               0.000000
 MO|    230               0.100102               2.723919               0.000000
 MO|    231               0.102806               2.797488               0.000000
 MO|    232               0.107268               2.918924               0.000000
 MO|    233               0.109020               2.966572               0.000000
 MO|    234               0.114592               3.118206               0.000000
 MO|    235               0.115172               3.133995               0.000000
 MO|    236               0.119702               3.257262               0.000000
 MO|    237               0.121517               3.306647               0.000000
 MO|    238               0.123742               3.367182               0.000000
 MO|    239               0.124985               3.401004               0.000000
 MO|    240               0.129508               3.524095               0.000000
 MO|    241               0.131398               3.575522               0.000000
 MO|    242               0.136133               3.704378               0.000000
 MO|    243               0.141407               3.847877               0.000000
 MO|    244               0.147067               4.001904               0.000000
 MO|    245               0.147105               4.002939               0.000000
 MO|    246               0.149244               4.061133               0.000000
 MO|    247               0.151819               4.131197               0.000000
 MO|    248               0.152576               4.151797               0.000000
 MO|    249               0.154191               4.195743               0.000000
 MO|    250               0.158602               4.315786               0.000000
 MO|    251               0.158643               4.316887               0.000000
 MO|    252               0.159808               4.348591               0.000000
 MO|    253               0.161128               4.384509               0.000000
 MO|    254               0.163545               4.450279               0.000000
 MO|    255               0.165498               4.503423               0.000000
 MO|    256               0.166004               4.517212               0.000000
 MO|    257               0.174059               4.736384               0.000000
 MO|    258               0.176662               4.807211               0.000000
 MO|    259               0.176955               4.815193               0.000000
 MO|    260               0.184253               5.013790               0.000000
 MO|    261               0.186977               5.087908               0.000000
 MO|    262               0.187090               5.090974               0.000000
 MO|    263               0.190063               5.171876               0.000000
 MO|    264               0.191415               5.208677               0.000000
 MO|    265               0.192515               5.238592               0.000000
 MO|    266               0.192836               5.247334               0.000000
 MO|    267               0.196377               5.343691               0.000000
 MO|    268               0.197692               5.379469               0.000000
 MO|    269               0.200997               5.469400               0.000000
 MO|    270               0.202618               5.513510               0.000000
 MO|    271               0.205604               5.594772               0.000000
 MO|    272               0.205626               5.595358               0.000000
 MO|    273               0.205883               5.602360               0.000000
 MO|    274               0.208474               5.672862               0.000000
 MO|    275               0.210886               5.738503               0.000000
 MO|    276               0.211897               5.765999               0.000000
 MO|    277               0.217859               5.928242               0.000000
 MO|    278               0.219214               5.965104               0.000000
 MO|    279               0.219482               5.972404               0.000000
 MO|    280               0.221748               6.034081               0.000000
 MO| Sum:                                                             360.000000
 MO| E(Fermi):           -0.096276 a.u.         -2.619793 eV
 MO| Band gap:            0.070107 a.u.          1.907715 eV

    24 Broy./Diag. 0.40E+00    0.4     0.00000957     -2121.4695664426 -4.49E-04
  Decoupling Energy:                                              -0.0000202113

 MO| EIGENVALUES AND OCCUPATION NUMBERS AFTER SCF STEP 24
 MO|
 MO|  Index      Eigenvalue [a.u.]        Eigenvalue [eV]             Occupation
 MO|      1              -9.798707            -266.636380               2.000000
 MO|      2              -9.798707            -266.636369               2.000000
 MO|      3              -9.798692            -266.635981               2.000000
 MO|      4              -9.798692            -266.635977               2.000000
 MO|      5              -9.797566            -266.605318               2.000000
 MO|      6              -9.797565            -266.605306               2.000000
 MO|      7              -9.796113            -266.565784               2.000000
 MO|      8              -9.796103            -266.565506               2.000000
 MO|      9              -9.796099            -266.565404               2.000000
 MO|     10              -9.796068            -266.564566               2.000000
 MO|     11              -9.796065            -266.564481               2.000000
 MO|     12              -9.795947            -266.561281               2.000000
 MO|     13              -9.795850            -266.558647               2.000000
 MO|     14              -9.795850            -266.558638               2.000000
 MO|     15              -9.795806            -266.557435               2.000000
 MO|     16              -9.795806            -266.557429               2.000000
 MO|     17              -9.795553            -266.550551               2.000000
 MO|     18              -9.795504            -266.549232               2.000000
 MO|     19              -9.795466            -266.548195               2.000000
 MO|     20              -9.795453            -266.547828               2.000000
 MO|     21              -9.795352            -266.545074               2.000000
 MO|     22              -9.795340            -266.544757               2.000000
 MO|     23              -9.795325            -266.544358               2.000000
 MO|     24              -9.795322            -266.544274               2.000000
 MO|     25              -9.795149            -266.539568               2.000000
 MO|     26              -9.795143            -266.539395               2.000000
 MO|     27              -9.795108            -266.538449               2.000000
 MO|     28              -9.795049            -266.536845               2.000000
 MO|     29              -9.795038            -266.536544               2.000000
 MO|     30              -9.794992            -266.535294               2.000000
 MO|     31              -9.794581            -266.524105               2.000000
 MO|     32              -9.794569            -266.523784               2.000000
 MO|     33              -9.794567            -266.523720               2.000000
 MO|     34              -9.794554            -266.523369               2.000000
 MO|     35              -9.787636            -266.335113               2.000000
 MO|     36              -9.787635            -266.335094               2.000000
 MO|     37              -9.787470            -266.330608               2.000000
 MO|     38              -9.787470            -266.330607               2.000000
 MO|     39              -9.787441            -266.329813               2.000000
 MO|     40              -9.787441            -266.329809               2.000000
 MO|     41              -9.786118            -266.293805               2.000000
 MO|     42              -9.786117            -266.293786               2.000000
 MO|     43              -9.786116            -266.293759               2.000000
 MO|     44              -9.786115            -266.293734               2.000000
 MO|     45              -9.784351            -266.245727               2.000000
 MO|     46              -9.784348            -266.245650               2.000000
 MO|     47              -9.784325            -266.245016               2.000000
 MO|     48              -9.784321            -266.244904               2.000000
 MO|     49              -9.783989            -266.235870               2.000000
 MO|     50              -9.783977            -266.235545               2.000000
 MO|     51              -9.783907            -266.233637               2.000000
 MO|     52              -9.783900            -266.233470               2.000000
 MO|     53              -9.781369            -266.164592               2.000000
 MO|     54              -9.781369            -266.164585               2.000000
 MO|     55              -9.781369            -266.164581               2.000000
 MO|     56              -9.781369            -266.164578               2.000000
 MO|     57              -0.842943             -22.937648               2.000000
 MO|     58              -0.835327             -22.730411               2.000000
 MO|     59              -0.822222             -22.373794               2.000000
 MO|     60              -0.810985             -22.068031               2.000000
 MO|     61              -0.804553             -21.892993               2.000000
 MO|     62              -0.802252             -21.830399               2.000000
 MO|     63              -0.788417             -21.453921               2.000000
 MO|     64              -0.776196             -21.121359               2.000000
 MO|     65              -0.773162             -21.038797               2.000000
 MO|     66              -0.759109             -20.656403               2.000000
 MO|     67              -0.751843             -20.458680               2.000000
 MO|     68              -0.749270             -20.388669               2.000000
 MO|     69              -0.741404             -20.174642               2.000000
 MO|     70              -0.737413             -20.066031               2.000000
 MO|     71              -0.725024             -19.728917               2.000000
 MO|     72              -0.712697             -19.393464               2.000000
 MO|     73              -0.709637             -19.310205               2.000000
 MO|     74              -0.694470             -18.897492               2.000000
 MO|     75              -0.687102             -18.696996               2.000000
 MO|     76              -0.686223             -18.673074               2.000000
 MO|     77              -0.680110             -18.506737               2.000000
 MO|     78              -0.678204             -18.454865               2.000000
 MO|     79              -0.671707             -18.278082               2.000000
 MO|     80              -0.670084             -18.233919               2.000000
 MO|     81              -0.662492             -18.027315               2.000000
 MO|     82              -0.641465             -17.455157               2.000000
 MO|     83              -0.640442             -17.427313               2.000000
 MO|     84              -0.615418             -16.746382               2.000000
 MO|     85              -0.614766             -16.728634               2.000000
 MO|     86              -0.600854             -16.350079               2.000000
 MO|     87              -0.595413             -16.202012               2.000000
 MO|     88              -0.583674             -15.882570               2.000000
 MO|     89              -0.582429             -15.848689               2.000000
 MO|     90              -0.580017             -15.783061               2.000000
 MO|     91              -0.575329             -15.655502               2.000000
 MO|     92              -0.573516             -15.606172               2.000000
 MO|     93              -0.563710             -15.339316               2.000000
 MO|     94              -0.548257             -14.918837               2.000000
 MO|     95              -0.546505             -14.871163               2.000000
 MO|     96              -0.523296             -14.239603               2.000000
 MO|     97              -0.521977             -14.203711               2.000000
 MO|     98              -0.516996             -14.068189               2.000000
 MO|     99              -0.516207             -14.046698               2.000000
 MO|    100              -0.502089             -13.662536               2.000000
 MO|    101              -0.496911             -13.521648               2.000000
 MO|    102              -0.495365             -13.479572               2.000000
 MO|    103              -0.490653             -13.351352               2.000000
 MO|    104              -0.480205             -13.067055               2.000000
 MO|    105              -0.474584             -12.914082               2.000000
 MO|    106              -0.470282             -12.797014               2.000000
 MO|    107              -0.459240             -12.496561               2.000000
 MO|    108              -0.455235             -12.387565               2.000000
 MO|    109              -0.449310             -12.226337               2.000000
 MO|    110              -0.438789             -11.940051               2.000000
 MO|    111              -0.434166             -11.814259               2.000000
 MO|    112              -0.432865             -11.778861               2.000000
 MO|    113              -0.428464             -11.659088               2.000000
 MO|    114              -0.426408             -11.603145               2.000000
 MO|    115              -0.420761             -11.449501               2.000000
 MO|    116              -0.410722             -11.176321               2.000000
 MO|    117              -0.410703             -11.175787               2.000000
 MO|    118              -0.407794             -11.096635               2.000000
 MO|    119              -0.406880             -11.071761               2.000000
 MO|    120              -0.405930             -11.045918               2.000000
 MO|    121              -0.405835             -11.043319               2.000000
 MO|    122              -0.399664             -10.875422               2.000000
 MO|    123              -0.394096             -10.723890               2.000000
 MO|    124              -0.394069             -10.723153               2.000000
 MO|    125              -0.390540             -10.627139               2.000000
 MO|    126              -0.384948             -10.474967               2.000000
 MO|    127              -0.378313             -10.294411               2.000000
 MO|    128              -0.374947             -10.202825               2.000000
 MO|    129              -0.373872             -10.173566               2.000000
 MO|    130              -0.372634             -10.139890               2.000000
 MO|    131              -0.371859             -10.118801               2.000000
 MO|    132              -0.366591              -9.975457               2.000000
 MO|    133              -0.365974              -9.958668               2.000000
 MO|    134              -0.365478              -9.945162               2.000000
 MO|    135              -0.360752              -9.816548               2.000000
 MO|    136              -0.359739              -9.788999               2.000000
 MO|    137              -0.355069              -9.661925               2.000000
 MO|    138              -0.353721              -9.625236               2.000000
 MO|    139              -0.349509              -9.510620               2.000000
 MO|    140              -0.349463              -9.509364               2.000000
 MO|    141              -0.345987              -9.414785               2.000000
 MO|    142              -0.344206              -9.366326               2.000000
 MO|    143              -0.342900              -9.330796               2.000000
 MO|    144              -0.340779              -9.273061               2.000000
 MO|    145              -0.338087              -9.199812               2.000000
 MO|    146              -0.332926              -9.059387               2.000000
 MO|    147              -0.326742              -8.891111               2.000000
 MO|    148              -0.318803              -8.675057               2.000000
 MO|    149              -0.318143              -8.657107               2.000000
 MO|    150              -0.316372              -8.608928               2.000000
 MO|    151              -0.312437              -8.501848               2.000000
 MO|    152              -0.307407              -8.364960               2.000000
 MO|    153              -0.305627              -8.316539               2.000000
 MO|    154              -0.304368              -8.282286               2.000000
 MO|    155              -0.301943              -8.216300               2.000000
 MO|    156              -0.301834              -8.213325               2.000000
 MO|    157              -0.297888              -8.105935               2.000000
 MO|    158              -0.292078              -7.947839               2.000000
 MO|    159              -0.290365              -7.901235               2.000000
 MO|    160              -0.286546              -7.797306               2.000000
 MO|    161              -0.277416              -7.548867               2.000000
 MO|    162              -0.277087              -7.539929               2.000000
 MO|    163              -0.266338              -7.247427               2.000000
 MO|    164              -0.265459              -7.223501               2.000000
 MO|    165              -0.264050              -7.185169               2.000000
 MO|    166              -0.260640              -7.092386               2.000000
 MO|    167              -0.251793              -6.851627               2.000000
 MO|    168              -0.244975              -6.666100               2.000000
 MO|    169              -0.233371              -6.350359               2.000000
 MO|    170              -0.232151              -6.317148               2.000000
 MO|    171              -0.230370              -6.268691               2.000000
 MO|    172              -0.227473              -6.189868               2.000000
 MO|    173              -0.224062              -6.097046               2.000000
 MO|    174              -0.220028              -5.987268               2.000000
 MO|    175              -0.208703              -5.679096               2.000000
 MO|    176              -0.208072              -5.661926               2.000000
 MO|    177              -0.193274              -5.259252               2.000000
 MO|    178              -0.176951              -4.815076               2.000000
 MO|    179              -0.169892              -4.622992               2.000000
 MO|    180              -0.156284              -4.252704               2.000000
 MO|    181              -0.086177              -2.344996               0.000000
 MO|    182              -0.074160              -2.017998               0.000000
 MO|    183              -0.073908              -2.011145               0.000000
 MO|    184              -0.056039              -1.524901               0.000000
 MO|    185              -0.049723              -1.353025               0.000000
 MO|    186              -0.043870              -1.193763               0.000000
 MO|    187              -0.042061              -1.144545               0.000000
 MO|    188              -0.034689              -0.943929               0.000000
 MO|    189              -0.023102              -0.628633               0.000000
 MO|    190              -0.022595              -0.614839               0.000000
 MO|    191              -0.013618              -0.370574               0.000000
 MO|    192              -0.011773              -0.320361               0.000000
 MO|    193              -0.005011              -0.136363               0.000000
 MO|    194              -0.004371              -0.118934               0.000000
 MO|    195              -0.002028              -0.055192               0.000000
 MO|    196               0.001965               0.053459               0.000000
 MO|    197               0.003641               0.099071               0.000000
 MO|    198               0.007322               0.199230               0.000000
 MO|    199               0.008623               0.234657               0.000000
 MO|    200               0.011957               0.325363               0.000000
 MO|    201               0.015928               0.433425               0.000000
 MO|    202               0.022867               0.622241               0.000000
 MO|    203               0.026848               0.730566               0.000000
 MO|    204               0.026898               0.731932               0.000000
 MO|    205               0.035803               0.974237               0.000000
 MO|    206               0.038047               1.035319               0.000000
 MO|    207               0.038607               1.050550               0.000000
 MO|    208               0.039230               1.067508               0.000000
 MO|    209               0.047854               1.302166               0.000000
 MO|    210               0.053836               1.464953               0.000000
 MO|    211               0.054246               1.476118               0.000000
 MO|    212               0.054362               1.479254               0.000000
 MO|    213               0.056576               1.539518               0.000000
 MO|    214               0.059786               1.626867               0.000000
 MO|    215               0.064850               1.764665               0.000000
 MO|    216               0.065657               1.786626               0.000000
 MO|    217               0.070996               1.931888               0.000000
 MO|    218               0.072828               1.981756               0.000000
 MO|    219               0.074216               2.019528               0.000000
 MO|    220               0.075550               2.055807               0.000000
 MO|    221               0.077027               2.096014               0.000000
 MO|    222               0.078544               2.137304               0.000000
 MO|    223               0.086442               2.352220               0.000000
 MO|    224               0.090062               2.450708               0.000000
 MO|    225               0.090941               2.474628               0.000000
 MO|    226               0.091099               2.478917               0.000000
 MO|    227               0.091845               2.499230               0.000000
 MO|    228               0.095577               2.600795               0.000000
 MO|    229               0.098962               2.692880               0.000000
 MO|    230               0.100101               2.723899               0.000000
 MO|    231               0.102803               2.797421               0.000000
 MO|    232               0.107267               2.918891               0.000000
 MO|    233               0.109017               2.966510               0.000000
 MO|    234               0.114591               3.118185               0.000000
 MO|    235               0.115171               3.133951               0.000000
 MO|    236               0.119702               3.257267               0.000000
 MO|    237               0.121519               3.306689               0.000000
 MO|    238               0.123741               3.367163               0.000000
 MO|    239               0.124982               3.400940               0.000000
 MO|    240               0.129508               3.524102               0.000000
 MO|    241               0.131394               3.575425               0.000000
 MO|    242               0.136134               3.704400               0.000000
 MO|    243               0.141405               3.847817               0.000000
 MO|    244               0.147067               4.001893               0.000000
 MO|    245               0.147104               4.002912               0.000000
 MO|    246               0.149242               4.061092               0.000000
 MO|    247               0.151817               4.131156               0.000000
 MO|    248               0.152575               4.151774               0.000000
 MO|    249               0.154190               4.195730               0.000000
 MO|    250               0.158604               4.315822               0.000000
 MO|    251               0.158639               4.316798               0.000000
 MO|    252               0.159808               4.348584               0.000000
 MO|    253               0.161128               4.384528               0.000000
 MO|    254               0.163545               4.450292               0.000000
 MO|    255               0.165495               4.503353               0.000000
 MO|    256               0.165999               4.517054               0.000000
 MO|    257               0.174058               4.736367               0.000000
 MO|    258               0.176661               4.807195               0.000000
 MO|    259               0.176954               4.815173               0.000000
 MO|    260               0.184254               5.013817               0.000000
 MO|    261               0.186977               5.087911               0.000000
 MO|    262               0.187090               5.090987               0.000000
 MO|    263               0.190063               5.171886               0.000000
 MO|    264               0.191414               5.208648               0.000000
 MO|    265               0.192514               5.238568               0.000000
 MO|    266               0.192833               5.247252               0.000000
 MO|    267               0.196377               5.343689               0.000000
 MO|    268               0.197693               5.379503               0.000000
 MO|    269               0.200997               5.469396               0.000000
 MO|    270               0.202616               5.513466               0.000000
 MO|    271               0.205604               5.594760               0.000000
 MO|    272               0.205622               5.595270               0.000000
 MO|    273               0.205882               5.602337               0.000000
 MO|    274               0.208472               5.672816               0.000000
 MO|    275               0.210885               5.738467               0.000000
 MO|    276               0.211899               5.766068               0.000000
 MO|    277               0.217863               5.928347               0.000000
 MO|    278               0.219211               5.965046               0.000000
 MO|    279               0.219481               5.972381               0.000000
 MO|    280               0.221744               6.033967               0.000000
 MO| Sum:                                                             360.000000
 MO| E(Fermi):           -0.096274 a.u.         -2.619758 eV
 MO| Band gap:            0.070107 a.u.          1.907708 eV

    25 Broy./Diag. 0.40E+00    0.4     0.00000784     -2121.4696366887 -7.02E-05
  Decoupling Energy:                                              -0.0000202605

 MO| EIGENVALUES AND OCCUPATION NUMBERS AFTER SCF STEP 25
 MO|
 MO|  Index      Eigenvalue [a.u.]        Eigenvalue [eV]             Occupation
 MO|      1              -9.798705            -266.636321               2.000000
 MO|      2              -9.798705            -266.636310               2.000000
 MO|      3              -9.798690            -266.635922               2.000000
 MO|      4              -9.798690            -266.635919               2.000000
 MO|      5              -9.797564            -266.605274               2.000000
 MO|      6              -9.797564            -266.605262               2.000000
 MO|      7              -9.796111            -266.565741               2.000000
 MO|      8              -9.796100            -266.565446               2.000000
 MO|      9              -9.796097            -266.565344               2.000000
 MO|     10              -9.796066            -266.564506               2.000000
 MO|     11              -9.796063            -266.564421               2.000000
 MO|     12              -9.795946            -266.561239               2.000000
 MO|     13              -9.795848            -266.558584               2.000000
 MO|     14              -9.795848            -266.558575               2.000000
 MO|     15              -9.795804            -266.557373               2.000000
 MO|     16              -9.795803            -266.557367               2.000000
 MO|     17              -9.795551            -266.550505               2.000000
 MO|     18              -9.795503            -266.549185               2.000000
 MO|     19              -9.795465            -266.548146               2.000000
 MO|     20              -9.795451            -266.547778               2.000000
 MO|     21              -9.795350            -266.545026               2.000000
 MO|     22              -9.795338            -266.544708               2.000000
 MO|     23              -9.795324            -266.544311               2.000000
 MO|     24              -9.795321            -266.544228               2.000000
 MO|     25              -9.795147            -266.539517               2.000000
 MO|     26              -9.795141            -266.539340               2.000000
 MO|     27              -9.795107            -266.538404               2.000000
 MO|     28              -9.795047            -266.536797               2.000000
 MO|     29              -9.795036            -266.536493               2.000000
 MO|     30              -9.794990            -266.535245               2.000000
 MO|     31              -9.794579            -266.524046               2.000000
 MO|     32              -9.794567            -266.523725               2.000000
 MO|     33              -9.794565            -266.523662               2.000000
 MO|     34              -9.794552            -266.523310               2.000000
 MO|     35              -9.787633            -266.335033               2.000000
 MO|     36              -9.787632            -266.335015               2.000000
 MO|     37              -9.787467            -266.330514               2.000000
 MO|     38              -9.787467            -266.330513               2.000000
 MO|     39              -9.787438            -266.329721               2.000000
 MO|     40              -9.787437            -266.329716               2.000000
 MO|     41              -9.786115            -266.293729               2.000000
 MO|     42              -9.786114            -266.293710               2.000000
 MO|     43              -9.786113            -266.293683               2.000000
 MO|     44              -9.786112            -266.293658               2.000000
 MO|     45              -9.784349            -266.245668               2.000000
 MO|     46              -9.784346            -266.245591               2.000000
 MO|     47              -9.784323            -266.244957               2.000000
 MO|     48              -9.784318            -266.244845               2.000000
 MO|     49              -9.783986            -266.235809               2.000000
 MO|     50              -9.783974            -266.235483               2.000000
 MO|     51              -9.783904            -266.233575               2.000000
 MO|     52              -9.783898            -266.233408               2.000000
 MO|     53              -9.781366            -266.164511               2.000000
 MO|     54              -9.781366            -266.164504               2.000000
 MO|     55              -9.781366            -266.164500               2.000000
 MO|     56              -9.781366            -266.164497               2.000000
 MO|     57              -0.842941             -22.937580               2.000000
 MO|     58              -0.835324             -22.730335               2.000000
 MO|     59              -0.822219             -22.373717               2.000000
 MO|     60              -0.810983             -22.067958               2.000000
 MO|     61              -0.804550             -21.892916               2.000000
 MO|     62              -0.802250             -21.830319               2.000000
 MO|     63              -0.788414             -21.453838               2.000000
 MO|     64              -0.776193             -21.121284               2.000000
 MO|     65              -0.773159             -21.038715               2.000000
 MO|     66              -0.759106             -20.656328               2.000000
 MO|     67              -0.751840             -20.458597               2.000000
 MO|     68              -0.749267             -20.388592               2.000000
 MO|     69              -0.741401             -20.174556               2.000000
 MO|     70              -0.737410             -20.065953               2.000000
 MO|     71              -0.725021             -19.728836               2.000000
 MO|     72              -0.712694             -19.393390               2.000000
 MO|     73              -0.709634             -19.310122               2.000000
 MO|     74              -0.694467             -18.897416               2.000000
 MO|     75              -0.687099             -18.696918               2.000000
 MO|     76              -0.686220             -18.672990               2.000000
 MO|     77              -0.680107             -18.506650               2.000000
 MO|     78              -0.678201             -18.454793               2.000000
 MO|     79              -0.671704             -18.278001               2.000000
 MO|     80              -0.670081             -18.233842               2.000000
 MO|     81              -0.662489             -18.027233               2.000000
 MO|     82              -0.641462             -17.455076               2.000000
 MO|     83              -0.640439             -17.427235               2.000000
 MO|     84              -0.615415             -16.746298               2.000000
 MO|     85              -0.614763             -16.728545               2.000000
 MO|     86              -0.600852             -16.350002               2.000000
 MO|     87              -0.595410             -16.201935               2.000000
 MO|     88              -0.583671             -15.882495               2.000000
 MO|     89              -0.582426             -15.848609               2.000000
 MO|     90              -0.580014             -15.782982               2.000000
 MO|     91              -0.575326             -15.655420               2.000000
 MO|     92              -0.573513             -15.606093               2.000000
 MO|     93              -0.563707             -15.339238               2.000000
 MO|     94              -0.548254             -14.918752               2.000000
 MO|     95              -0.546502             -14.871076               2.000000
 MO|     96              -0.523293             -14.239524               2.000000
 MO|     97              -0.521974             -14.203631               2.000000
 MO|     98              -0.516994             -14.068112               2.000000
 MO|     99              -0.516204             -14.046613               2.000000
 MO|    100              -0.502086             -13.662452               2.000000
 MO|    101              -0.496908             -13.521568               2.000000
 MO|    102              -0.495362             -13.479490               2.000000
 MO|    103              -0.490650             -13.351271               2.000000
 MO|    104              -0.480202             -13.066968               2.000000
 MO|    105              -0.474581             -12.913997               2.000000
 MO|    106              -0.470279             -12.796933               2.000000
 MO|    107              -0.459237             -12.496477               2.000000
 MO|    108              -0.455231             -12.387477               2.000000
 MO|    109              -0.449307             -12.226254               2.000000
 MO|    110              -0.438786             -11.939967               2.000000
 MO|    111              -0.434163             -11.814176               2.000000
 MO|    112              -0.432862             -11.778780               2.000000
 MO|    113              -0.428460             -11.659002               2.000000
 MO|    114              -0.426404             -11.603053               2.000000
 MO|    115              -0.420758             -11.449413               2.000000
 MO|    116              -0.410719             -11.176230               2.000000
 MO|    117              -0.410700             -11.175702               2.000000
 MO|    118              -0.407791             -11.096551               2.000000
 MO|    119              -0.406877             -11.071683               2.000000
 MO|    120              -0.405927             -11.045837               2.000000
 MO|    121              -0.405832             -11.043237               2.000000
 MO|    122              -0.399661             -10.875339               2.000000
 MO|    123              -0.394092             -10.723796               2.000000
 MO|    124              -0.394065             -10.723067               2.000000
 MO|    125              -0.390538             -10.627078               2.000000
 MO|    126              -0.384945             -10.474886               2.000000
 MO|    127              -0.378310             -10.294328               2.000000
 MO|    128              -0.374944             -10.202738               2.000000
 MO|    129              -0.373869             -10.173482               2.000000
 MO|    130              -0.372631             -10.139806               2.000000
 MO|    131              -0.371857             -10.118736               2.000000
 MO|    132              -0.366588              -9.975378               2.000000
 MO|    133              -0.365971              -9.958588               2.000000
 MO|    134              -0.365475              -9.945081               2.000000
 MO|    135              -0.360749              -9.816469               2.000000
 MO|    136              -0.359737              -9.788934               2.000000
 MO|    137              -0.355066              -9.661842               2.000000
 MO|    138              -0.353718              -9.625151               2.000000
 MO|    139              -0.349506              -9.510534               2.000000
 MO|    140              -0.349460              -9.509289               2.000000
 MO|    141              -0.345985              -9.414718               2.000000
 MO|    142              -0.344203              -9.366240               2.000000
 MO|    143              -0.342897              -9.330705               2.000000
 MO|    144              -0.340776              -9.272976               2.000000
 MO|    145              -0.338084              -9.199724               2.000000
 MO|    146              -0.332924              -9.059310               2.000000
 MO|    147              -0.326739              -8.891018               2.000000
 MO|    148              -0.318800              -8.674986               2.000000
 MO|    149              -0.318140              -8.657018               2.000000
 MO|    150              -0.316369              -8.608836               2.000000
 MO|    151              -0.312434              -8.501772               2.000000
 MO|    152              -0.307404              -8.364877               2.000000
 MO|    153              -0.305624              -8.316450               2.000000
 MO|    154              -0.304366              -8.282208               2.000000
 MO|    155              -0.301941              -8.216232               2.000000
 MO|    156              -0.301831              -8.213237               2.000000
 MO|    157              -0.297884              -8.105847               2.000000
 MO|    158              -0.292075              -7.947765               2.000000
 MO|    159              -0.290362              -7.901161               2.000000
 MO|    160              -0.286543              -7.797221               2.000000
 MO|    161              -0.277413              -7.548785               2.000000
 MO|    162              -0.277085              -7.539855               2.000000
 MO|    163              -0.266335              -7.247344               2.000000
 MO|    164              -0.265456              -7.223433               2.000000
 MO|    165              -0.264047              -7.185093               2.000000
 MO|    166              -0.260638              -7.092313               2.000000
 MO|    167              -0.251790              -6.851549               2.000000
 MO|    168              -0.244972              -6.666021               2.000000
 MO|    169              -0.233369              -6.350291               2.000000
 MO|    170              -0.232148              -6.317074               2.000000
 MO|    171              -0.230368              -6.268622               2.000000
 MO|    172              -0.227471              -6.189789               2.000000
 MO|    173              -0.224059              -6.096967               2.000000
 MO|    174              -0.220026              -5.987200               2.000000
 MO|    175              -0.208700              -5.679019               2.000000
 MO|    176              -0.208069              -5.661853               2.000000
 MO|    177              -0.193271              -5.259174               2.000000
 MO|    178              -0.176948              -4.815005               2.000000
 MO|    179              -0.169889              -4.622914               2.000000
 MO|    180              -0.156281              -4.252634               2.000000
 MO|    181              -0.086175              -2.344928               0.000000
 MO|    182              -0.074157              -2.017928               0.000000
 MO|    183              -0.073906              -2.011072               0.000000
 MO|    184              -0.056036              -1.524828               0.000000
 MO|    185              -0.049720              -1.352956               0.000000
 MO|    186              -0.043868              -1.193697               0.000000
 MO|    187              -0.042058              -1.144469               0.000000
 MO|    188              -0.034686              -0.943853               0.000000
 MO|    189              -0.023099              -0.628565               0.000000
 MO|    190              -0.022592              -0.614764               0.000000
 MO|    191              -0.013616              -0.370513               0.000000
 MO|    192              -0.011770              -0.320292               0.000000
 MO|    193              -0.005015              -0.136476               0.000000
 MO|    194              -0.004375              -0.119040               0.000000
 MO|    195              -0.002026              -0.055120               0.000000
 MO|    196               0.001958               0.053280               0.000000
 MO|    197               0.003633               0.098860               0.000000
 MO|    198               0.007318               0.199135               0.000000
 MO|    199               0.008626               0.234716               0.000000
 MO|    200               0.011952               0.325230               0.000000
 MO|    201               0.015923               0.433281               0.000000
 MO|    202               0.022863               0.622132               0.000000
 MO|    203               0.026850               0.730633               0.000000
 MO|    204               0.026891               0.731749               0.000000
 MO|    205               0.035799               0.974136               0.000000
 MO|    206               0.038048               1.035334               0.000000
 MO|    207               0.038609               1.050615               0.000000
 MO|    208               0.039223               1.067306               0.000000
 MO|    209               0.047849               1.302031               0.000000
 MO|    210               0.053831               1.464827               0.000000
 MO|    211               0.054241               1.475960               0.000000
 MO|    212               0.054362               1.479263               0.000000
 MO|    213               0.056572               1.539401               0.000000
 MO|    214               0.059788               1.626904               0.000000
 MO|    215               0.064850               1.764666               0.000000
 MO|    216               0.065653               1.786503               0.000000
 MO|    217               0.070995               1.931878               0.000000
 MO|    218               0.072829               1.981774               0.000000
 MO|    219               0.074212               2.019404               0.000000
 MO|    220               0.075551               2.055847               0.000000
 MO|    221               0.077028               2.096041               0.000000
 MO|    222               0.078545               2.137309               0.000000
 MO|    223               0.086439               2.352116               0.000000
 MO|    224               0.090063               2.450739               0.000000
 MO|    225               0.090942               2.474654               0.000000
 MO|    226               0.091095               2.478812               0.000000
 MO|    227               0.091841               2.499134               0.000000
 MO|    228               0.095573               2.600670               0.000000
 MO|    229               0.098960               2.692825               0.000000
 MO|    230               0.100102               2.723906               0.000000
 MO|    231               0.102803               2.797406               0.000000
 MO|    232               0.107262               2.918758               0.000000
 MO|    233               0.109015               2.966442               0.000000
 MO|    234               0.114588               3.118110               0.000000
 MO|    235               0.115168               3.133867               0.000000
 MO|    236               0.119704               3.257298               0.000000
 MO|    237               0.121521               3.306747               0.000000
 MO|    238               0.123741               3.367162               0.000000
 MO|    239               0.124982               3.400920               0.000000
 MO|    240               0.129506               3.524031               0.000000
 MO|    241               0.131390               3.575293               0.000000
 MO|    242               0.136132               3.704351               0.000000
 MO|    243               0.141400               3.847699               0.000000
 MO|    244               0.147066               4.001863               0.000000
 MO|    245               0.147102               4.002837               0.000000
 MO|    246               0.149242               4.061077               0.000000
 MO|    247               0.151814               4.131068               0.000000
 MO|    248               0.152572               4.151694               0.000000
 MO|    249               0.154189               4.195689               0.000000
 MO|    250               0.158606               4.315885               0.000000
 MO|    251               0.158637               4.316742               0.000000
 MO|    252               0.159804               4.348481               0.000000
 MO|    253               0.161127               4.384480               0.000000
 MO|    254               0.163542               4.450197               0.000000
 MO|    255               0.165490               4.503221               0.000000
 MO|    256               0.165994               4.516934               0.000000
 MO|    257               0.174057               4.736325               0.000000
 MO|    258               0.176658               4.807119               0.000000
 MO|    259               0.176955               4.815181               0.000000
 MO|    260               0.184257               5.013883               0.000000
 MO|    261               0.186977               5.087892               0.000000
 MO|    262               0.187091               5.091009               0.000000
 MO|    263               0.190064               5.171897               0.000000
 MO|    264               0.191414               5.208636               0.000000
 MO|    265               0.192510               5.238472               0.000000
 MO|    266               0.192831               5.247199               0.000000
 MO|    267               0.196376               5.343667               0.000000
 MO|    268               0.197689               5.379381               0.000000
 MO|    269               0.200996               5.469383               0.000000
 MO|    270               0.202613               5.513394               0.000000
 MO|    271               0.205603               5.594753               0.000000
 MO|    272               0.205616               5.595107               0.000000
 MO|    273               0.205882               5.602339               0.000000
 MO|    274               0.208470               5.672761               0.000000
 MO|    275               0.210884               5.738435               0.000000
 MO|    276               0.211898               5.766042               0.000000
 MO|    277               0.217863               5.928350               0.000000
 MO|    278               0.219208               5.964966               0.000000
 MO|    279               0.219480               5.972360               0.000000
 MO|    280               0.221740               6.033842               0.000000
 MO| Sum:                                                             360.000000
 MO| E(Fermi):           -0.096272 a.u.         -2.619690 eV
 MO| Band gap:            0.070107 a.u.          1.907706 eV

    26 Broy./Diag. 0.40E+00    0.4     0.00000396     -2121.4694899899  1.47E-04
  Decoupling Energy:                                              -0.0000202603

 MO| EIGENVALUES AND OCCUPATION NUMBERS AFTER SCF STEP 26
 MO|
 MO|  Index      Eigenvalue [a.u.]        Eigenvalue [eV]             Occupation
 MO|      1              -9.798702            -266.636240               2.000000
 MO|      2              -9.798702            -266.636229               2.000000
 MO|      3              -9.798687            -266.635841               2.000000
 MO|      4              -9.798687            -266.635838               2.000000
 MO|      5              -9.797561            -266.605200               2.000000
 MO|      6              -9.797561            -266.605188               2.000000
 MO|      7              -9.796109            -266.565677               2.000000
 MO|      8              -9.796098            -266.565375               2.000000
 MO|      9              -9.796094            -266.565273               2.000000
 MO|     10              -9.796063            -266.564435               2.000000
 MO|     11              -9.796060            -266.564350               2.000000
 MO|     12              -9.795943            -266.561174               2.000000
 MO|     13              -9.795846            -266.558514               2.000000
 MO|     14              -9.795845            -266.558505               2.000000
 MO|     15              -9.795801            -266.557303               2.000000
 MO|     16              -9.795801            -266.557297               2.000000
 MO|     17              -9.795549            -266.550440               2.000000
 MO|     18              -9.795500            -266.549119               2.000000
 MO|     19              -9.795462            -266.548080               2.000000
 MO|     20              -9.795449            -266.547713               2.000000
 MO|     21              -9.795348            -266.544961               2.000000
 MO|     22              -9.795336            -266.544642               2.000000
 MO|     23              -9.795321            -266.544245               2.000000
 MO|     24              -9.795318            -266.544163               2.000000
 MO|     25              -9.795145            -266.539452               2.000000
 MO|     26              -9.795139            -266.539275               2.000000
 MO|     27              -9.795104            -266.538339               2.000000
 MO|     28              -9.795045            -266.536732               2.000000
 MO|     29              -9.795034            -266.536428               2.000000
 MO|     30              -9.794988            -266.535180               2.000000
 MO|     31              -9.794576            -266.523981               2.000000
 MO|     32              -9.794565            -266.523660               2.000000
 MO|     33              -9.794562            -266.523597               2.000000
 MO|     34              -9.794549            -266.523245               2.000000
 MO|     35              -9.787630            -266.334953               2.000000
 MO|     36              -9.787629            -266.334934               2.000000
 MO|     37              -9.787464            -266.330444               2.000000
 MO|     38              -9.787464            -266.330443               2.000000
 MO|     39              -9.787435            -266.329650               2.000000
 MO|     40              -9.787435            -266.329645               2.000000
 MO|     41              -9.786112            -266.293658               2.000000
 MO|     42              -9.786112            -266.293638               2.000000
 MO|     43              -9.786111            -266.293612               2.000000
 MO|     44              -9.786110            -266.293586               2.000000
 MO|     45              -9.784346            -266.245604               2.000000
 MO|     46              -9.784344            -266.245528               2.000000
 MO|     47              -9.784320            -266.244894               2.000000
 MO|     48              -9.784316            -266.244781               2.000000
 MO|     49              -9.783984            -266.235746               2.000000
 MO|     50              -9.783972            -266.235420               2.000000
 MO|     51              -9.783902            -266.233512               2.000000
 MO|     52              -9.783896            -266.233346               2.000000
 MO|     53              -9.781364            -266.164449               2.000000
 MO|     54              -9.781364            -266.164442               2.000000
 MO|     55              -9.781364            -266.164438               2.000000
 MO|     56              -9.781363            -266.164435               2.000000
 MO|     57              -0.842938             -22.937505               2.000000
 MO|     58              -0.835322             -22.730256               2.000000
 MO|     59              -0.822216             -22.373637               2.000000
 MO|     60              -0.810980             -22.067883               2.000000
 MO|     61              -0.804547             -21.892837               2.000000
 MO|     62              -0.802247             -21.830241               2.000000
 MO|     63              -0.788411             -21.453759               2.000000
 MO|     64              -0.776190             -21.121206               2.000000
 MO|     65              -0.773156             -21.038637               2.000000
 MO|     66              -0.759103             -20.656253               2.000000
 MO|     67              -0.751837             -20.458520               2.000000
 MO|     68              -0.749264             -20.388513               2.000000
 MO|     69              -0.741398             -20.174477               2.000000
 MO|     70              -0.737407             -20.065875               2.000000
 MO|     71              -0.725019             -19.728760               2.000000
 MO|     72              -0.712691             -19.393312               2.000000
 MO|     73              -0.709631             -19.310044               2.000000
 MO|     74              -0.694465             -18.897342               2.000000
 MO|     75              -0.687096             -18.696842               2.000000
 MO|     76              -0.686217             -18.672912               2.000000
 MO|     77              -0.680104             -18.506570               2.000000
 MO|     78              -0.678198             -18.454716               2.000000
 MO|     79              -0.671701             -18.277923               2.000000
 MO|     80              -0.670079             -18.233767               2.000000
 MO|     81              -0.662486             -18.027155               2.000000
 MO|     82              -0.641459             -17.454999               2.000000
 MO|     83              -0.640436             -17.427159               2.000000
 MO|     84              -0.615412             -16.746220               2.000000
 MO|     85              -0.614760             -16.728466               2.000000
 MO|     86              -0.600849             -16.349923               2.000000
 MO|     87              -0.595407             -16.201860               2.000000
 MO|     88              -0.583668             -15.882421               2.000000
 MO|     89              -0.582423             -15.848531               2.000000
 MO|     90              -0.580011             -15.782906               2.000000
 MO|     91              -0.575323             -15.655342               2.000000
 MO|     92              -0.573511             -15.606016               2.000000
 MO|     93              -0.563704             -15.339158               2.000000
 MO|     94              -0.548251             -14.918674               2.000000
 MO|     95              -0.546499             -14.870997               2.000000
 MO|     96              -0.523290             -14.239448               2.000000
 MO|     97              -0.521971             -14.203556               2.000000
 MO|     98              -0.516991             -14.068034               2.000000
 MO|     99              -0.516201             -14.046535               2.000000
 MO|    100              -0.502083             -13.662375               2.000000
 MO|    101              -0.496906             -13.521493               2.000000
 MO|    102              -0.495359             -13.479414               2.000000
 MO|    103              -0.490647             -13.351194               2.000000
 MO|    104              -0.480199             -13.066888               2.000000
 MO|    105              -0.474578             -12.913920               2.000000
 MO|    106              -0.470276             -12.796855               2.000000
 MO|    107              -0.459234             -12.496398               2.000000
 MO|    108              -0.455228             -12.387397               2.000000
 MO|    109              -0.449304             -12.226178               2.000000
 MO|    110              -0.438783             -11.939893               2.000000
 MO|    111              -0.434160             -11.814100               2.000000
 MO|    112              -0.432859             -11.778704               2.000000
 MO|    113              -0.428458             -11.658924               2.000000
 MO|    114              -0.426401             -11.602975               2.000000
 MO|    115              -0.420755             -11.449337               2.000000
 MO|    116              -0.410716             -11.176152               2.000000
 MO|    117              -0.410697             -11.175623               2.000000
 MO|    118              -0.407788             -11.096473               2.000000
 MO|    119              -0.406874             -11.071606               2.000000
 MO|    120              -0.405924             -11.045758               2.000000
 MO|    121              -0.405829             -11.043159               2.000000
 MO|    122              -0.399659             -10.875262               2.000000
 MO|    123              -0.394089             -10.723716               2.000000
 MO|    124              -0.394063             -10.722991               2.000000
 MO|    125              -0.390536             -10.627012               2.000000
 MO|    126              -0.384942             -10.474807               2.000000
 MO|    127              -0.378307             -10.294250               2.000000
 MO|    128              -0.374941             -10.202659               2.000000
 MO|    129              -0.373866             -10.173405               2.000000
 MO|    130              -0.372628             -10.139726               2.000000
 MO|    131              -0.371854             -10.118667               2.000000
 MO|    132              -0.366586              -9.975301               2.000000
 MO|    133              -0.365969              -9.958512               2.000000
 MO|    134              -0.365472              -9.945006               2.000000
 MO|    135              -0.360746              -9.816390               2.000000
 MO|    136              -0.359734              -9.788868               2.000000
 MO|    137              -0.355063              -9.661763               2.000000
 MO|    138              -0.353715              -9.625073               2.000000
 MO|    139              -0.349503              -9.510459               2.000000
 MO|    140              -0.349457              -9.509218               2.000000
 MO|    141              -0.345982              -9.414647               2.000000
 MO|    142              -0.344200              -9.366164               2.000000
 MO|    143              -0.342894              -9.330628               2.000000
 MO|    144              -0.340773              -9.272898               2.000000
 MO|    145              -0.338081              -9.199645               2.000000
 MO|    146              -0.332921              -9.059237               2.000000
 MO|    147              -0.326736              -8.890942               2.000000
 MO|    148              -0.318797              -8.674914               2.000000
 MO|    149              -0.318137              -8.656939               2.000000
 MO|    150              -0.316366              -8.608756               2.000000
 MO|    151              -0.312432              -8.501701               2.000000
 MO|    152              -0.307401              -8.364800               2.000000
 MO|    153              -0.305621              -8.316371               2.000000
 MO|    154              -0.304363              -8.282132               2.000000
 MO|    155              -0.301939              -8.216165               2.000000
 MO|    156              -0.301828              -8.213159               2.000000
 MO|    157              -0.297882              -8.105773               2.000000
 MO|    158              -0.292072              -7.947695               2.000000
 MO|    159              -0.290360              -7.901091               2.000000
 MO|    160              -0.286540              -7.797143               2.000000
 MO|    161              -0.277410              -7.548706               2.000000
 MO|    162              -0.277082              -7.539784               2.000000
 MO|    163              -0.266332              -7.247266               2.000000
 MO|    164              -0.265454              -7.223362               2.000000
 MO|    165              -0.264045              -7.185023               2.000000
 MO|    166              -0.260635              -7.092236               2.000000
 MO|    167              -0.251787              -6.851474               2.000000
 MO|    168              -0.244969              -6.665949               2.000000
 MO|    169              -0.233366              -6.350221               2.000000
 MO|    170              -0.232146              -6.317003               2.000000
 MO|    171              -0.230365              -6.268555               2.000000
 MO|    172              -0.227468              -6.189715               2.000000
 MO|    173              -0.224057              -6.096893               2.000000
 MO|    174              -0.220023              -5.987133               2.000000
 MO|    175              -0.208697              -5.678946               2.000000
 MO|    176              -0.208067              -5.661782               2.000000
 MO|    177              -0.193268              -5.259102               2.000000
 MO|    178              -0.176946              -4.814935               2.000000
 MO|    179              -0.169886              -4.622840               2.000000
 MO|    180              -0.156279              -4.252564               2.000000
 MO|    181              -0.086172              -2.344859               0.000000
 MO|    182              -0.074155              -2.017860               0.000000
 MO|    183              -0.073903              -2.011002               0.000000
 MO|    184              -0.056034              -1.524760               0.000000
 MO|    185              -0.049718              -1.352889               0.000000
 MO|    186              -0.043865              -1.193633               0.000000
 MO|    187              -0.042056              -1.144398               0.000000
 MO|    188              -0.034683              -0.943782               0.000000
 MO|    189              -0.023097              -0.628499               0.000000
 MO|    190              -0.022590              -0.614692               0.000000
 MO|    191              -0.013614              -0.370450               0.000000
 MO|    192              -0.011768              -0.320224               0.000000
 MO|    193              -0.005019              -0.136583               0.000000
 MO|    194              -0.004378              -0.119139               0.000000
 MO|    195              -0.002023              -0.055053               0.000000
 MO|    196               0.001952               0.053108               0.000000
 MO|    197               0.003626               0.098665               0.000000
 MO|    198               0.007314               0.199031               0.000000
 MO|    199               0.008628               0.234771               0.000000
 MO|    200               0.011947               0.325092               0.000000
 MO|    201               0.015917               0.433135               0.000000
 MO|    202               0.022858               0.622005               0.000000
 MO|    203               0.026853               0.730700               0.000000
 MO|    204               0.026885               0.731573               0.000000
 MO|    205               0.035795               0.974025               0.000000
 MO|    206               0.038049               1.035354               0.000000
 MO|    207               0.038612               1.050678               0.000000
 MO|    208               0.039215               1.067099               0.000000
 MO|    209               0.047844               1.301898               0.000000
 MO|    210               0.053826               1.464689               0.000000
 MO|    211               0.054233               1.475759               0.000000
 MO|    212               0.054362               1.479278               0.000000
 MO|    213               0.056568               1.539281               0.000000
 MO|    214               0.059789               1.626944               0.000000
 MO|    215               0.064851               1.764682               0.000000
 MO|    216               0.065647               1.786345               0.000000
 MO|    217               0.070995               1.931885               0.000000
 MO|    218               0.072830               1.981796               0.000000
 MO|    219               0.074207               2.019278               0.000000
 MO|    220               0.075552               2.055885               0.000000
 MO|    221               0.077029               2.096073               0.000000
 MO|    222               0.078545               2.137329               0.000000
 MO|    223               0.086434               2.351984               0.000000
 MO|    224               0.090064               2.450770               0.000000
 MO|    225               0.090943               2.474687               0.000000
 MO|    226               0.091091               2.478705               0.000000
 MO|    227               0.091838               2.499032               0.000000
 MO|    228               0.095568               2.600544               0.000000
 MO|    229               0.098957               2.692754               0.000000
 MO|    230               0.100102               2.723921               0.000000
 MO|    231               0.102803               2.797406               0.000000
 MO|    232               0.107256               2.918593               0.000000
 MO|    233               0.109012               2.966372               0.000000
 MO|    234               0.114585               3.118020               0.000000
 MO|    235               0.115164               3.133768               0.000000
 MO|    236               0.119705               3.257337               0.000000
 MO|    237               0.121523               3.306800               0.000000
 MO|    238               0.123741               3.367168               0.000000
 MO|    239               0.124981               3.400912               0.000000
 MO|    240               0.129502               3.523935               0.000000
 MO|    241               0.131384               3.575149               0.000000
 MO|    242               0.136130               3.704274               0.000000
 MO|    243               0.141395               3.847566               0.000000
 MO|    244               0.147065               4.001837               0.000000
 MO|    245               0.147098               4.002743               0.000000
 MO|    246               0.149241               4.061067               0.000000
 MO|    247               0.151810               4.130964               0.000000
 MO|    248               0.152568               4.151594               0.000000
 MO|    249               0.154187               4.195653               0.000000
 MO|    250               0.158608               4.315947               0.000000
 MO|    251               0.158636               4.316700               0.000000
 MO|    252               0.159799               4.348350               0.000000
 MO|    253               0.161124               4.384410               0.000000
 MO|    254               0.163537               4.450071               0.000000
 MO|    255               0.165485               4.503068               0.000000
 MO|    256               0.165991               4.516839               0.000000
 MO|    257               0.174055               4.736273               0.000000
 MO|    258               0.176655               4.807034               0.000000
 MO|    259               0.176955               4.815194               0.000000
 MO|    260               0.184259               5.013949               0.000000
 MO|    261               0.186975               5.087862               0.000000
 MO|    262               0.187092               5.091026               0.000000
 MO|    263               0.190064               5.171907               0.000000
 MO|    264               0.191414               5.208628               0.000000
 MO|    265               0.192506               5.238360               0.000000
 MO|    266               0.192830               5.247160               0.000000
 MO|    267               0.196375               5.343639               0.000000
 MO|    268               0.197682               5.379212               0.000000
 MO|    269               0.200995               5.469364               0.000000
 MO|    270               0.202611               5.513320               0.000000
 MO|    271               0.205603               5.594743               0.000000
 MO|    272               0.205610               5.594921               0.000000
 MO|    273               0.205883               5.602349               0.000000
 MO|    274               0.208468               5.672704               0.000000
 MO|    275               0.210882               5.738401               0.000000
 MO|    276               0.211896               5.765987               0.000000
 MO|    277               0.217862               5.928327               0.000000
 MO|    278               0.219205               5.964881               0.000000
 MO|    279               0.219479               5.972341               0.000000
 MO|    280               0.221735               6.033717               0.000000
 MO| Sum:                                                             360.000000
 MO| E(Fermi):           -0.096269 a.u.         -2.619621 eV
 MO| Band gap:            0.070107 a.u.          1.907705 eV

    27 Broy./Diag. 0.40E+00    0.5     0.00000327     -2121.4694485161  4.15E-05
  Decoupling Energy:                                              -0.0000202271

 MO| EIGENVALUES AND OCCUPATION NUMBERS AFTER SCF STEP 27
 MO|
 MO|  Index      Eigenvalue [a.u.]        Eigenvalue [eV]             Occupation
 MO|      1              -9.798701            -266.636209               2.000000
 MO|      2              -9.798700            -266.636198               2.000000
 MO|      3              -9.798686            -266.635810               2.000000
 MO|      4              -9.798686            -266.635806               2.000000
 MO|      5              -9.797560            -266.605168               2.000000
 MO|      6              -9.797560            -266.605156               2.000000
 MO|      7              -9.796108            -266.565642               2.000000
 MO|      8              -9.796096            -266.565338               2.000000
 MO|      9              -9.796093            -266.565236               2.000000
 MO|     10              -9.796062            -266.564399               2.000000
 MO|     11              -9.796059            -266.564314               2.000000
 MO|     12              -9.795942            -266.561139               2.000000
 MO|     13              -9.795844            -266.558478               2.000000
 MO|     14              -9.795844            -266.558469               2.000000
 MO|     15              -9.795800            -266.557267               2.000000
 MO|     16              -9.795800            -266.557261               2.000000
 MO|     17              -9.795548            -266.550406               2.000000
 MO|     18              -9.795499            -266.549085               2.000000
 MO|     19              -9.795461            -266.548045               2.000000
 MO|     20              -9.795447            -266.547678               2.000000
 MO|     21              -9.795346            -266.544928               2.000000
 MO|     22              -9.795335            -266.544609               2.000000
 MO|     23              -9.795320            -266.544212               2.000000
 MO|     24              -9.795317            -266.544129               2.000000
 MO|     25              -9.795144            -266.539416               2.000000
 MO|     26              -9.795137            -266.539238               2.000000
 MO|     27              -9.795103            -266.538305               2.000000
 MO|     28              -9.795044            -266.536698               2.000000
 MO|     29              -9.795033            -266.536392               2.000000
 MO|     30              -9.794987            -266.535146               2.000000
 MO|     31              -9.794575            -266.523944               2.000000
 MO|     32              -9.794563            -266.523623               2.000000
 MO|     33              -9.794561            -266.523560               2.000000
 MO|     34              -9.794548            -266.523208               2.000000
 MO|     35              -9.787628            -266.334907               2.000000
 MO|     36              -9.787627            -266.334889               2.000000
 MO|     37              -9.787462            -266.330398               2.000000
 MO|     38              -9.787462            -266.330396               2.000000
 MO|     39              -9.787433            -266.329603               2.000000
 MO|     40              -9.787433            -266.329599               2.000000
 MO|     41              -9.786111            -266.293622               2.000000
 MO|     42              -9.786110            -266.293602               2.000000
 MO|     43              -9.786109            -266.293576               2.000000
 MO|     44              -9.786108            -266.293550               2.000000
 MO|     45              -9.784345            -266.245571               2.000000
 MO|     46              -9.784342            -266.245495               2.000000
 MO|     47              -9.784319            -266.244861               2.000000
 MO|     48              -9.784315            -266.244749               2.000000
 MO|     49              -9.783983            -266.235712               2.000000
 MO|     50              -9.783971            -266.235386               2.000000
 MO|     51              -9.783901            -266.233478               2.000000
 MO|     52              -9.783895            -266.233312               2.000000
 MO|     53              -9.781362            -266.164407               2.000000
 MO|     54              -9.781362            -266.164400               2.000000
 MO|     55              -9.781362            -266.164396               2.000000
 MO|     56              -9.781362            -266.164393               2.000000
 MO|     57              -0.842937             -22.937474               2.000000
 MO|     58              -0.835320             -22.730223               2.000000
 MO|     59              -0.822215             -22.373605               2.000000
 MO|     60              -0.810979             -22.067853               2.000000
 MO|     61              -0.804546             -21.892805               2.000000
 MO|     62              -0.802245             -21.830209               2.000000
 MO|     63              -0.788410             -21.453725               2.000000
 MO|     64              -0.776189             -21.121172               2.000000
 MO|     65              -0.773155             -21.038605               2.000000
 MO|     66              -0.759102             -20.656223               2.000000
 MO|     67              -0.751836             -20.458487               2.000000
 MO|     68              -0.749263             -20.388478               2.000000
 MO|     69              -0.741397             -20.174443               2.000000
 MO|     70              -0.737406             -20.065842               2.000000
 MO|     71              -0.725017             -19.728728               2.000000
 MO|     72              -0.712690             -19.393277               2.000000
 MO|     73              -0.709630             -19.310010               2.000000
 MO|     74              -0.694463             -18.897312               2.000000
 MO|     75              -0.687095             -18.696809               2.000000
 MO|     76              -0.686216             -18.672879               2.000000
 MO|     77              -0.680103             -18.506535               2.000000
 MO|     78              -0.678197             -18.454682               2.000000
 MO|     79              -0.671700             -18.277890               2.000000
 MO|     80              -0.670077             -18.233735               2.000000
 MO|     81              -0.662485             -18.027122               2.000000
 MO|     82              -0.641458             -17.454966               2.000000
 MO|     83              -0.640435             -17.427126               2.000000
 MO|     84              -0.615411             -16.746184               2.000000
 MO|     85              -0.614758             -16.728429               2.000000
 MO|     86              -0.600847             -16.349889               2.000000
 MO|     87              -0.595406             -16.201828               2.000000
 MO|     88              -0.583667             -15.882391               2.000000
 MO|     89              -0.582422             -15.848499               2.000000
 MO|     90              -0.580010             -15.782872               2.000000
 MO|     91              -0.575322             -15.655308               2.000000
 MO|     92              -0.573509             -15.605984               2.000000
 MO|     93              -0.563702             -15.339122               2.000000
 MO|     94              -0.548250             -14.918639               2.000000
 MO|     95              -0.546498             -14.870963               2.000000
 MO|     96              -0.523289             -14.239415               2.000000
 MO|     97              -0.521970             -14.203523               2.000000
 MO|     98              -0.516989             -14.067998               2.000000
 MO|     99              -0.516199             -14.046502               2.000000
 MO|    100              -0.502082             -13.662340               2.000000
 MO|    101              -0.496905             -13.521461               2.000000
 MO|    102              -0.495358             -13.479382               2.000000
 MO|    103              -0.490646             -13.351161               2.000000
 MO|    104              -0.480198             -13.066855               2.000000
 MO|    105              -0.474577             -12.913886               2.000000
 MO|    106              -0.470274             -12.796819               2.000000
 MO|    107              -0.459233             -12.496363               2.000000
 MO|    108              -0.455227             -12.387363               2.000000
 MO|    109              -0.449303             -12.226146               2.000000
 MO|    110              -0.438782             -11.939861               2.000000
 MO|    111              -0.434159             -11.814067               2.000000
 MO|    112              -0.432858             -11.778672               2.000000
 MO|    113              -0.428456             -11.658890               2.000000
 MO|    114              -0.426400             -11.602941               2.000000
 MO|    115              -0.420754             -11.449305               2.000000
 MO|    116              -0.410715             -11.176118               2.000000
 MO|    117              -0.410695             -11.175589               2.000000
 MO|    118              -0.407787             -11.096439               2.000000
 MO|    119              -0.406873             -11.071571               2.000000
 MO|    120              -0.405923             -11.045722               2.000000
 MO|    121              -0.405827             -11.043124               2.000000
 MO|    122              -0.399657             -10.875228               2.000000
 MO|    123              -0.394088             -10.723682               2.000000
 MO|    124              -0.394061             -10.722958               2.000000
 MO|    125              -0.390535             -10.626985               2.000000
 MO|    126              -0.384941             -10.474774               2.000000
 MO|    127              -0.378306             -10.294217               2.000000
 MO|    128              -0.374940             -10.202625               2.000000
 MO|    129              -0.373865             -10.173372               2.000000
 MO|    130              -0.372627             -10.139690               2.000000
 MO|    131              -0.371853             -10.118637               2.000000
 MO|    132              -0.366584              -9.975268               2.000000
 MO|    133              -0.365967              -9.958479               2.000000
 MO|    134              -0.365471              -9.944975               2.000000
 MO|    135              -0.360744              -9.816353               2.000000
 MO|    136              -0.359733              -9.788842               2.000000
 MO|    137              -0.355062              -9.661730               2.000000
 MO|    138              -0.353714              -9.625039               2.000000
 MO|    139              -0.349502              -9.510427               2.000000
 MO|    140              -0.349456              -9.509190               2.000000
 MO|    141              -0.345981              -9.414617               2.000000
 MO|    142              -0.344199              -9.366130               2.000000
 MO|    143              -0.342893              -9.330595               2.000000
 MO|    144              -0.340772              -9.272866               2.000000
 MO|    145              -0.338080              -9.199611               2.000000
 MO|    146              -0.332920              -9.059208               2.000000
 MO|    147              -0.326735              -8.890909               2.000000
 MO|    148              -0.318796              -8.674884               2.000000
 MO|    149              -0.318135              -8.656905               2.000000
 MO|    150              -0.316365              -8.608722               2.000000
 MO|    151              -0.312431              -8.501672               2.000000
 MO|    152              -0.307400              -8.364767               2.000000
 MO|    153              -0.305620              -8.316337               2.000000
 MO|    154              -0.304362              -8.282099               2.000000
 MO|    155              -0.301938              -8.216139               2.000000
 MO|    156              -0.301827              -8.213126               2.000000
 MO|    157              -0.297881              -8.105741               2.000000
 MO|    158              -0.292071              -7.947667               2.000000
 MO|    159              -0.290359              -7.901062               2.000000
 MO|    160              -0.286538              -7.797109               2.000000
 MO|    161              -0.277409              -7.548671               2.000000
 MO|    162              -0.277081              -7.539755               2.000000
 MO|    163              -0.266331              -7.247232               2.000000
 MO|    164              -0.265453              -7.223334               2.000000
 MO|    165              -0.264044              -7.184995               2.000000
 MO|    166              -0.260634              -7.092203               2.000000
 MO|    167              -0.251786              -6.851442               2.000000
 MO|    168              -0.244968              -6.665919               2.000000
 MO|    169              -0.233365              -6.350193               2.000000
 MO|    170              -0.232144              -6.316973               2.000000
 MO|    171              -0.230364              -6.268529               2.000000
 MO|    172              -0.227467              -6.189685               2.000000
 MO|    173              -0.224056              -6.096863               2.000000
 MO|    174              -0.220022              -5.987106               2.000000
 MO|    175              -0.208696              -5.678916               2.000000
 MO|    176              -0.208066              -5.661752               2.000000
 MO|    177              -0.193267              -5.259070               2.000000
 MO|    178              -0.176945              -4.814907               2.000000
 MO|    179              -0.169885              -4.622808               2.000000
 MO|    180              -0.156278              -4.252535               2.000000
 MO|    181              -0.086171              -2.344831               0.000000
 MO|    182              -0.074154              -2.017832               0.000000
 MO|    183              -0.073902              -2.010972               0.000000
 MO|    184              -0.056033              -1.524731               0.000000
 MO|    185              -0.049717              -1.352861               0.000000
 MO|    186              -0.043864              -1.193608               0.000000
 MO|    187              -0.042055              -1.144369               0.000000
 MO|    188              -0.034682              -0.943753               0.000000
 MO|    189              -0.023096              -0.628471               0.000000
 MO|    190              -0.022588              -0.614663               0.000000
 MO|    191              -0.013613              -0.370423               0.000000
 MO|    192              -0.011767              -0.320197               0.000000
 MO|    193              -0.005021              -0.136625               0.000000
 MO|    194              -0.004380              -0.119176               0.000000
 MO|    195              -0.002022              -0.055024               0.000000
 MO|    196               0.001948               0.053014               0.000000
 MO|    197               0.003622               0.098565               0.000000
 MO|    198               0.007312               0.198971               0.000000
 MO|    199               0.008629               0.234796               0.000000
 MO|    200               0.011944               0.325019               0.000000
 MO|    201               0.015914               0.433054               0.000000
 MO|    202               0.022856               0.621931               0.000000
 MO|    203               0.026854               0.730727               0.000000
 MO|    204               0.026881               0.731480               0.000000
 MO|    205               0.035792               0.973963               0.000000
 MO|    206               0.038049               1.035375               0.000000
 MO|    207               0.038613               1.050704               0.000000
 MO|    208               0.039211               1.066984               0.000000
 MO|    209               0.047841               1.301831               0.000000
 MO|    210               0.053824               1.464622               0.000000
 MO|    211               0.054229               1.475635               0.000000
 MO|    212               0.054363               1.479297               0.000000
 MO|    213               0.056566               1.539226               0.000000
 MO|    214               0.059790               1.626966               0.000000
 MO|    215               0.064851               1.764697               0.000000
 MO|    216               0.065643               1.786249               0.000000
 MO|    217               0.070996               1.931899               0.000000
 MO|    218               0.072830               1.981811               0.000000
 MO|    219               0.074205               2.019209               0.000000
 MO|    220               0.075553               2.055904               0.000000
 MO|    221               0.077030               2.096095               0.000000
 MO|    222               0.078546               2.137343               0.000000
 MO|    223               0.086431               2.351899               0.000000
 MO|    224               0.090065               2.450785               0.000000
 MO|    225               0.090944               2.474708               0.000000
 MO|    226               0.091089               2.478647               0.000000
 MO|    227               0.091835               2.498960               0.000000
 MO|    228               0.095565               2.600462               0.000000
 MO|    229               0.098955               2.692700               0.000000
 MO|    230               0.100103               2.723933               0.000000
 MO|    231               0.102803               2.797416               0.000000
 MO|    232               0.107252               2.918487               0.000000
 MO|    233               0.109011               2.966327               0.000000
 MO|    234               0.114583               3.117964               0.000000
 MO|    235               0.115161               3.133701               0.000000
 MO|    236               0.119706               3.257362               0.000000
 MO|    237               0.121523               3.306822               0.000000
 MO|    238               0.123742               3.367181               0.000000
 MO|    239               0.124981               3.400918               0.000000
 MO|    240               0.129500               3.523871               0.000000
 MO|    241               0.131381               3.575060               0.000000
 MO|    242               0.136127               3.704215               0.000000
 MO|    243               0.141393               3.847488               0.000000
 MO|    244               0.147065               4.001837               0.000000
 MO|    245               0.147096               4.002683               0.000000
 MO|    246               0.149242               4.061069               0.000000
 MO|    247               0.151808               4.130902               0.000000
 MO|    248               0.152566               4.151529               0.000000
 MO|    249               0.154187               4.195648               0.000000
 MO|    250               0.158609               4.315974               0.000000
 MO|    251               0.158635               4.316690               0.000000
 MO|    252               0.159796               4.348266               0.000000
 MO|    253               0.161122               4.384361               0.000000
 MO|    254               0.163534               4.449992               0.000000
 MO|    255               0.165481               4.502969               0.000000
 MO|    256               0.165990               4.516813               0.000000
 MO|    257               0.174054               4.736245               0.000000
 MO|    258               0.176654               4.807003               0.000000
 MO|    259               0.176956               4.815206               0.000000
 MO|    260               0.184260               5.013977               0.000000
 MO|    261               0.186974               5.087832               0.000000
 MO|    262               0.187092               5.091024               0.000000
 MO|    263               0.190064               5.171906               0.000000
 MO|    264               0.191414               5.208629               0.000000
 MO|    265               0.192504               5.238304               0.000000
 MO|    266               0.192829               5.247155               0.000000
 MO|    267               0.196375               5.343625               0.000000
 MO|    268               0.197678               5.379099               0.000000
 MO|    269               0.200995               5.469343               0.000000
 MO|    270               0.202610               5.513288               0.000000
 MO|    271               0.205603               5.594730               0.000000
 MO|    272               0.205605               5.594804               0.000000
 MO|    273               0.205883               5.602362               0.000000
 MO|    274               0.208467               5.672668               0.000000
 MO|    275               0.210881               5.738375               0.000000
 MO|    276               0.211895               5.765944               0.000000
 MO|    277               0.217862               5.928315               0.000000
 MO|    278               0.219204               5.964835               0.000000
 MO|    279               0.219479               5.972337               0.000000
 MO|    280               0.221732               6.033644               0.000000
 MO| Sum:                                                             360.000000
 MO| E(Fermi):           -0.096268 a.u.         -2.619593 eV
 MO| Band gap:            0.070107 a.u.          1.907704 eV

    28 Broy./Diag. 0.40E+00    0.4     0.00000204     -2121.4695582826 -1.10E-04
  Decoupling Energy:                                              -0.0000201994

 MO| EIGENVALUES AND OCCUPATION NUMBERS AFTER SCF STEP 28
 MO|
 MO|  Index      Eigenvalue [a.u.]        Eigenvalue [eV]             Occupation
 MO|      1              -9.798700            -266.636194               2.000000
 MO|      2              -9.798700            -266.636183               2.000000
 MO|      3              -9.798686            -266.635795               2.000000
 MO|      4              -9.798685            -266.635792               2.000000
 MO|      5              -9.797560            -266.605163               2.000000
 MO|      6              -9.797559            -266.605151               2.000000
 MO|      7              -9.796108            -266.565644               2.000000
 MO|      8              -9.796096            -266.565331               2.000000
 MO|      9              -9.796092            -266.565229               2.000000
 MO|     10              -9.796062            -266.564392               2.000000
 MO|     11              -9.796058            -266.564307               2.000000
 MO|     12              -9.795942            -266.561141               2.000000
 MO|     13              -9.795844            -266.558473               2.000000
 MO|     14              -9.795844            -266.558464               2.000000
 MO|     15              -9.795800            -266.557261               2.000000
 MO|     16              -9.795799            -266.557255               2.000000
 MO|     17              -9.795548            -266.550405               2.000000
 MO|     18              -9.795499            -266.549085               2.000000
 MO|     19              -9.795461            -266.548044               2.000000
 MO|     20              -9.795447            -266.547677               2.000000
 MO|     21              -9.795346            -266.544929               2.000000
 MO|     22              -9.795335            -266.544610               2.000000
 MO|     23              -9.795320            -266.544212               2.000000
 MO|     24              -9.795317            -266.544130               2.000000
 MO|     25              -9.795144            -266.539417               2.000000
 MO|     26              -9.795137            -266.539238               2.000000
 MO|     27              -9.795103            -266.538306               2.000000
 MO|     28              -9.795044            -266.536699               2.000000
 MO|     29              -9.795033            -266.536392               2.000000
 MO|     30              -9.794987            -266.535146               2.000000
 MO|     31              -9.794575            -266.523944               2.000000
 MO|     32              -9.794563            -266.523623               2.000000
 MO|     33              -9.794561            -266.523560               2.000000
 MO|     34              -9.794548            -266.523208               2.000000
 MO|     35              -9.787628            -266.334889               2.000000
 MO|     36              -9.787627            -266.334871               2.000000
 MO|     37              -9.787462            -266.330390               2.000000
 MO|     38              -9.787462            -266.330388               2.000000
 MO|     39              -9.787433            -266.329594               2.000000
 MO|     40              -9.787433            -266.329590               2.000000
 MO|     41              -9.786111            -266.293612               2.000000
 MO|     42              -9.786110            -266.293593               2.000000
 MO|     43              -9.786109            -266.293566               2.000000
 MO|     44              -9.786108            -266.293541               2.000000
 MO|     45              -9.784345            -266.245569               2.000000
 MO|     46              -9.784342            -266.245492               2.000000
 MO|     47              -9.784319            -266.244858               2.000000
 MO|     48              -9.784315            -266.244746               2.000000
 MO|     49              -9.783983            -266.235709               2.000000
 MO|     50              -9.783971            -266.235384               2.000000
 MO|     51              -9.783901            -266.233476               2.000000
 MO|     52              -9.783895            -266.233309               2.000000
 MO|     53              -9.781362            -266.164401               2.000000
 MO|     54              -9.781362            -266.164394               2.000000
 MO|     55              -9.781362            -266.164390               2.000000
 MO|     56              -9.781362            -266.164387               2.000000
 MO|     57              -0.842937             -22.937479               2.000000
 MO|     58              -0.835320             -22.730224               2.000000
 MO|     59              -0.822215             -22.373605               2.000000
 MO|     60              -0.810979             -22.067858               2.000000
 MO|     61              -0.804546             -21.892805               2.000000
 MO|     62              -0.802246             -21.830211               2.000000
 MO|     63              -0.788410             -21.453726               2.000000
 MO|     64              -0.776189             -21.121172               2.000000
 MO|     65              -0.773155             -21.038607               2.000000
 MO|     66              -0.759102             -20.656227               2.000000
 MO|     67              -0.751836             -20.458488               2.000000
 MO|     68              -0.749263             -20.388476               2.000000
 MO|     69              -0.741397             -20.174443               2.000000
 MO|     70              -0.737406             -20.065844               2.000000
 MO|     71              -0.725018             -19.728731               2.000000
 MO|     72              -0.712690             -19.393276               2.000000
 MO|     73              -0.709630             -19.310010               2.000000
 MO|     74              -0.694464             -18.897315               2.000000
 MO|     75              -0.687095             -18.696811               2.000000
 MO|     76              -0.686216             -18.672878               2.000000
 MO|     77              -0.680103             -18.506532               2.000000
 MO|     78              -0.678197             -18.454682               2.000000
 MO|     79              -0.671700             -18.277891               2.000000
 MO|     80              -0.670078             -18.233737               2.000000
 MO|     81              -0.662485             -18.027123               2.000000
 MO|     82              -0.641458             -17.454968               2.000000
 MO|     83              -0.640435             -17.427127               2.000000
 MO|     84              -0.615411             -16.746181               2.000000
 MO|     85              -0.614758             -16.728425               2.000000
 MO|     86              -0.600847             -16.349890               2.000000
 MO|     87              -0.595406             -16.201831               2.000000
 MO|     88              -0.583667             -15.882394               2.000000
 MO|     89              -0.582422             -15.848499               2.000000
 MO|     90              -0.580010             -15.782873               2.000000
 MO|     91              -0.575322             -15.655307               2.000000
 MO|     92              -0.573509             -15.605985               2.000000
 MO|     93              -0.563702             -15.339119               2.000000
 MO|     94              -0.548250             -14.918637               2.000000
 MO|     95              -0.546498             -14.870962               2.000000
 MO|     96              -0.523289             -14.239416               2.000000
 MO|     97              -0.521970             -14.203522               2.000000
 MO|     98              -0.516989             -14.067996               2.000000
 MO|     99              -0.516199             -14.046502               2.000000
 MO|    100              -0.502082             -13.662337               2.000000
 MO|    101              -0.496905             -13.521462               2.000000
 MO|    102              -0.495358             -13.479383               2.000000
 MO|    103              -0.490646             -13.351163               2.000000
 MO|    104              -0.480198             -13.066853               2.000000
 MO|    105              -0.474577             -12.913884               2.000000
 MO|    106              -0.470274             -12.796816               2.000000
 MO|    107              -0.459233             -12.496363               2.000000
 MO|    108              -0.455227             -12.387362               2.000000
 MO|    109              -0.449303             -12.226146               2.000000
 MO|    110              -0.438782             -11.939860               2.000000
 MO|    111              -0.434159             -11.814067               2.000000
 MO|    112              -0.432858             -11.778673               2.000000
 MO|    113              -0.428456             -11.658889               2.000000
 MO|    114              -0.426400             -11.602938               2.000000
 MO|    115              -0.420754             -11.449304               2.000000
 MO|    116              -0.410715             -11.176115               2.000000
 MO|    117              -0.410695             -11.175587               2.000000
 MO|    118              -0.407787             -11.096438               2.000000
 MO|    119              -0.406873             -11.071565               2.000000
 MO|    120              -0.405923             -11.045714               2.000000
 MO|    121              -0.405827             -11.043122               2.000000
 MO|    122              -0.399657             -10.875227               2.000000
 MO|    123              -0.394088             -10.723679               2.000000
 MO|    124              -0.394061             -10.722956               2.000000
 MO|    125              -0.390535             -10.626989               2.000000
 MO|    126              -0.384941             -10.474774               2.000000
 MO|    127              -0.378306             -10.294218               2.000000
 MO|    128              -0.374940             -10.202624               2.000000
 MO|    129              -0.373865             -10.173370               2.000000
 MO|    130              -0.372627             -10.139688               2.000000
 MO|    131              -0.371853             -10.118639               2.000000
 MO|    132              -0.366584              -9.975269               2.000000
 MO|    133              -0.365967              -9.958480               2.000000
 MO|    134              -0.365471              -9.944976               2.000000
 MO|    135              -0.360744              -9.816349               2.000000
 MO|    136              -0.359734              -9.788849               2.000000
 MO|    137              -0.355062              -9.661728               2.000000
 MO|    138              -0.353714              -9.625038               2.000000
 MO|    139              -0.349502              -9.510426               2.000000
 MO|    140              -0.349456              -9.509193               2.000000
 MO|    141              -0.345981              -9.414618               2.000000
 MO|    142              -0.344199              -9.366129               2.000000
 MO|    143              -0.342893              -9.330594               2.000000
 MO|    144              -0.340772              -9.272865               2.000000
 MO|    145              -0.338079              -9.199611               2.000000
 MO|    146              -0.332920              -9.059210               2.000000
 MO|    147              -0.326735              -8.890907               2.000000
 MO|    148              -0.318796              -8.674884               2.000000
 MO|    149              -0.318135              -8.656901               2.000000
 MO|    150              -0.316365              -8.608720               2.000000
 MO|    151              -0.312431              -8.501675               2.000000
 MO|    152              -0.307400              -8.364766               2.000000
 MO|    153              -0.305620              -8.316335               2.000000
 MO|    154              -0.304362              -8.282100               2.000000
 MO|    155              -0.301938              -8.216144               2.000000
 MO|    156              -0.301827              -8.213123               2.000000
 MO|    157              -0.297880              -8.105740               2.000000
 MO|    158              -0.292072              -7.947671               2.000000
 MO|    159              -0.290359              -7.901064               2.000000
 MO|    160              -0.286538              -7.797107               2.000000
 MO|    161              -0.277409              -7.548669               2.000000
 MO|    162              -0.277081              -7.539758               2.000000
 MO|    163              -0.266331              -7.247230               2.000000
 MO|    164              -0.265453              -7.223337               2.000000
 MO|    165              -0.264044              -7.184998               2.000000
 MO|    166              -0.260634              -7.092205               2.000000
 MO|    167              -0.251786              -6.851443               2.000000
 MO|    168              -0.244968              -6.665921               2.000000
 MO|    169              -0.233365              -6.350196               2.000000
 MO|    170              -0.232145              -6.316976               2.000000
 MO|    171              -0.230364              -6.268534               2.000000
 MO|    172              -0.227467              -6.189685               2.000000
 MO|    173              -0.224056              -6.096863               2.000000
 MO|    174              -0.220022              -5.987111               2.000000
 MO|    175              -0.208696              -5.678918               2.000000
 MO|    176              -0.208066              -5.661756               2.000000
 MO|    177              -0.193267              -5.259070               2.000000
 MO|    178              -0.176945              -4.814912               2.000000
 MO|    179              -0.169885              -4.622807               2.000000
 MO|    180              -0.156278              -4.252537               2.000000
 MO|    181              -0.086171              -2.344835               0.000000
 MO|    182              -0.074154              -2.017835               0.000000
 MO|    183              -0.073902              -2.010972               0.000000
 MO|    184              -0.056033              -1.524728               0.000000
 MO|    185              -0.049717              -1.352864               0.000000
 MO|    186              -0.043864              -1.193612               0.000000
 MO|    187              -0.042055              -1.144370               0.000000
 MO|    188              -0.034682              -0.943754               0.000000
 MO|    189              -0.023096              -0.628473               0.000000
 MO|    190              -0.022588              -0.614664               0.000000
 MO|    191              -0.013613              -0.370424               0.000000
 MO|    192              -0.011767              -0.320202               0.000000
 MO|    193              -0.005021              -0.136632               0.000000
 MO|    194              -0.004380              -0.119175               0.000000
 MO|    195              -0.002022              -0.055026               0.000000
 MO|    196               0.001946               0.052963               0.000000
 MO|    197               0.003621               0.098519               0.000000
 MO|    198               0.007311               0.198936               0.000000
 MO|    199               0.008629               0.234798               0.000000
 MO|    200               0.011943               0.324984               0.000000
 MO|    201               0.015913               0.433009               0.000000
 MO|    202               0.022854               0.621890               0.000000
 MO|    203               0.026854               0.730726               0.000000
 MO|    204               0.026880               0.731436               0.000000
 MO|    205               0.035791               0.973928               0.000000
 MO|    206               0.038050               1.035390               0.000000
 MO|    207               0.038613               1.050702               0.000000
 MO|    208               0.039209               1.066929               0.000000
 MO|    209               0.047840               1.301800               0.000000
 MO|    210               0.053823               1.464605               0.000000
 MO|    211               0.054226               1.475570               0.000000
 MO|    212               0.054364               1.479313               0.000000
 MO|    213               0.056565               1.539211               0.000000
 MO|    214               0.059790               1.626970               0.000000
 MO|    215               0.064852               1.764703               0.000000
 MO|    216               0.065642               1.786196               0.000000
 MO|    217               0.070996               1.931908               0.000000
 MO|    218               0.072830               1.981815               0.000000
 MO|    219               0.074203               2.019174               0.000000
 MO|    220               0.075553               2.055907               0.000000
 MO|    221               0.077030               2.096104               0.000000
 MO|    222               0.078546               2.137345               0.000000
 MO|    223               0.086429               2.351847               0.000000
 MO|    224               0.090065               2.450785               0.000000
 MO|    225               0.090944               2.474715               0.000000
 MO|    226               0.091087               2.478613               0.000000
 MO|    227               0.091833               2.498908               0.000000
 MO|    228               0.095563               2.600408               0.000000
 MO|    229               0.098953               2.692659               0.000000
 MO|    230               0.100103               2.723937               0.000000
 MO|    231               0.102803               2.797422               0.000000
 MO|    232               0.107250               2.918423               0.000000
 MO|    233               0.109009               2.966295               0.000000
 MO|    234               0.114582               3.117929               0.000000
 MO|    235               0.115160               3.133658               0.000000
 MO|    236               0.119706               3.257370               0.000000
 MO|    237               0.121523               3.306820               0.000000
 MO|    238               0.123742               3.367191               0.000000
 MO|    239               0.124982               3.400923               0.000000
 MO|    240               0.129498               3.523829               0.000000
 MO|    241               0.131379               3.575006               0.000000
 MO|    242               0.136126               3.704173               0.000000
 MO|    243               0.141391               3.847444               0.000000
 MO|    244               0.147065               4.001850               0.000000
 MO|    245               0.147095               4.002645               0.000000
 MO|    246               0.149242               4.061073               0.000000
 MO|    247               0.151807               4.130867               0.000000
 MO|    248               0.152564               4.151488               0.000000
 MO|    249               0.154188               4.195661               0.000000
 MO|    250               0.158609               4.315972               0.000000
 MO|    251               0.158636               4.316694               0.000000
 MO|    252               0.159794               4.348218               0.000000
 MO|    253               0.161121               4.384329               0.000000
 MO|    254               0.163533               4.449946               0.000000
 MO|    255               0.165479               4.502910               0.000000
 MO|    256               0.165990               4.516827               0.000000
 MO|    257               0.174053               4.736235               0.000000
 MO|    258               0.176654               4.807009               0.000000
 MO|    259               0.176956               4.815210               0.000000
 MO|    260               0.184260               5.013972               0.000000
 MO|    261               0.186973               5.087801               0.000000
 MO|    262               0.187091               5.091006               0.000000
 MO|    263               0.190064               5.171893               0.000000
 MO|    264               0.191414               5.208630               0.000000
 MO|    265               0.192504               5.238287               0.000000
 MO|    266               0.192830               5.247166               0.000000
 MO|    267               0.196374               5.343619               0.000000
 MO|    268               0.197676               5.379032               0.000000
 MO|    269               0.200994               5.469318               0.000000
 MO|    270               0.202609               5.513283               0.000000
 MO|    271               0.205602               5.594711               0.000000
 MO|    272               0.205603               5.594738               0.000000
 MO|    273               0.205883               5.602368               0.000000
 MO|    274               0.208466               5.672644               0.000000
 MO|    275               0.210881               5.738352               0.000000
 MO|    276               0.211893               5.765911               0.000000
 MO|    277               0.217862               5.928316               0.000000
 MO|    278               0.219203               5.964813               0.000000
 MO|    279               0.219479               5.972337               0.000000
 MO|    280               0.221731               6.033602               0.000000
 MO| Sum:                                                             360.000000
 MO| E(Fermi):           -0.096268 a.u.         -2.619597 eV
 MO| Band gap:            0.070107 a.u.          1.907702 eV

    29 Broy./Diag. 0.40E+00    0.5     0.00000107     -2121.4696718325 -1.14E-04
  Decoupling Energy:                                              -0.0000201962

 MO| EIGENVALUES AND OCCUPATION NUMBERS AFTER SCF STEP 29
 MO|
 MO|  Index      Eigenvalue [a.u.]        Eigenvalue [eV]             Occupation
 MO|      1              -9.798701            -266.636204               2.000000
 MO|      2              -9.798700            -266.636193               2.000000
 MO|      3              -9.798686            -266.635805               2.000000
 MO|      4              -9.798686            -266.635802               2.000000
 MO|      5              -9.797560            -266.605179               2.000000
 MO|      6              -9.797560            -266.605167               2.000000
 MO|      7              -9.796108            -266.565662               2.000000
 MO|      8              -9.796096            -266.565342               2.000000
 MO|      9              -9.796093            -266.565240               2.000000
 MO|     10              -9.796062            -266.564404               2.000000
 MO|     11              -9.796059            -266.564318               2.000000
 MO|     12              -9.795943            -266.561159               2.000000
 MO|     13              -9.795844            -266.558484               2.000000
 MO|     14              -9.795844            -266.558475               2.000000
 MO|     15              -9.795800            -266.557272               2.000000
 MO|     16              -9.795800            -266.557266               2.000000
 MO|     17              -9.795548            -266.550422               2.000000
 MO|     18              -9.795500            -266.549101               2.000000
 MO|     19              -9.795461            -266.548059               2.000000
 MO|     20              -9.795448            -266.547692               2.000000
 MO|     21              -9.795347            -266.544945               2.000000
 MO|     22              -9.795335            -266.544626               2.000000
 MO|     23              -9.795321            -266.544229               2.000000
 MO|     24              -9.795318            -266.544147               2.000000
 MO|     25              -9.795144            -266.539432               2.000000
 MO|     26              -9.795138            -266.539252               2.000000
 MO|     27              -9.795104            -266.538322               2.000000
 MO|     28              -9.795044            -266.536716               2.000000
 MO|     29              -9.795033            -266.536408               2.000000
 MO|     30              -9.794987            -266.535163               2.000000
 MO|     31              -9.794576            -266.523958               2.000000
 MO|     32              -9.794564            -266.523637               2.000000
 MO|     33              -9.794562            -266.523574               2.000000
 MO|     34              -9.794549            -266.523222               2.000000
 MO|     35              -9.787628            -266.334895               2.000000
 MO|     36              -9.787627            -266.334876               2.000000
 MO|     37              -9.787462            -266.330393               2.000000
 MO|     38              -9.787462            -266.330391               2.000000
 MO|     39              -9.787433            -266.329597               2.000000
 MO|     40              -9.787433            -266.329593               2.000000
 MO|     41              -9.786111            -266.293617               2.000000
 MO|     42              -9.786110            -266.293597               2.000000
 MO|     43              -9.786109            -266.293571               2.000000
 MO|     44              -9.786108            -266.293545               2.000000
 MO|     45              -9.784345            -266.245581               2.000000
 MO|     46              -9.784343            -266.245504               2.000000
 MO|     47              -9.784319            -266.244870               2.000000
 MO|     48              -9.784315            -266.244758               2.000000
 MO|     49              -9.783983            -266.235721               2.000000
 MO|     50              -9.783971            -266.235396               2.000000
 MO|     51              -9.783901            -266.233488               2.000000
 MO|     52              -9.783895            -266.233321               2.000000
 MO|     53              -9.781362            -266.164406               2.000000
 MO|     54              -9.781362            -266.164399               2.000000
 MO|     55              -9.781362            -266.164395               2.000000
 MO|     56              -9.781362            -266.164391               2.000000
 MO|     57              -0.842938             -22.937496               2.000000
 MO|     58              -0.835321             -22.730239               2.000000
 MO|     59              -0.822215             -22.373619               2.000000
 MO|     60              -0.810979             -22.067874               2.000000
 MO|     61              -0.804546             -21.892819               2.000000
 MO|     62              -0.802246             -21.830225               2.000000
 MO|     63              -0.788410             -21.453739               2.000000
 MO|     64              -0.776189             -21.121186               2.000000
 MO|     65              -0.773155             -21.038621               2.000000
 MO|     66              -0.759103             -20.656242               2.000000
 MO|     67              -0.751836             -20.458500               2.000000
 MO|     68              -0.749263             -20.388489               2.000000
 MO|     69              -0.741398             -20.174454               2.000000
 MO|     70              -0.737407             -20.065858               2.000000
 MO|     71              -0.725018             -19.728744               2.000000
 MO|     72              -0.712690             -19.393290               2.000000
 MO|     73              -0.709630             -19.310023               2.000000
 MO|     74              -0.694464             -18.897330               2.000000
 MO|     75              -0.687096             -18.696825               2.000000
 MO|     76              -0.686216             -18.672889               2.000000
 MO|     77              -0.680103             -18.506542               2.000000
 MO|     78              -0.678198             -18.454696               2.000000
 MO|     79              -0.671701             -18.277904               2.000000
 MO|     80              -0.670078             -18.233751               2.000000
 MO|     81              -0.662485             -18.027135               2.000000
 MO|     82              -0.641459             -17.454982               2.000000
 MO|     83              -0.640436             -17.427140               2.000000
 MO|     84              -0.615411             -16.746192               2.000000
 MO|     85              -0.614759             -16.728434               2.000000
 MO|     86              -0.600848             -16.349903               2.000000
 MO|     87              -0.595407             -16.201845               2.000000
 MO|     88              -0.583668             -15.882409               2.000000
 MO|     89              -0.582422             -15.848512               2.000000
 MO|     90              -0.580010             -15.782886               2.000000
 MO|     91              -0.575322             -15.655319               2.000000
 MO|     92              -0.573510             -15.605998               2.000000
 MO|     93              -0.563703             -15.339132               2.000000
 MO|     94              -0.548250             -14.918648               2.000000
 MO|     95              -0.546498             -14.870973               2.000000
 MO|     96              -0.523289             -14.239429               2.000000
 MO|     97              -0.521970             -14.203534               2.000000
 MO|     98              -0.516990             -14.068009               2.000000
 MO|     99              -0.516200             -14.046512               2.000000
 MO|    100              -0.502082             -13.662348               2.000000
 MO|    101              -0.496905             -13.521475               2.000000
 MO|    102              -0.495359             -13.479395               2.000000
 MO|    103              -0.490647             -13.351176               2.000000
 MO|    104              -0.480198             -13.066863               2.000000
 MO|    105              -0.474577             -12.913895               2.000000
 MO|    106              -0.470275             -12.796827               2.000000
 MO|    107              -0.459233             -12.496374               2.000000
 MO|    108              -0.455228             -12.387372               2.000000
 MO|    109              -0.449303             -12.226158               2.000000
 MO|    110              -0.438782             -11.939871               2.000000
 MO|    111              -0.434159             -11.814079               2.000000
 MO|    112              -0.432859             -11.778686               2.000000
 MO|    113              -0.428457             -11.658900               2.000000
 MO|    114              -0.426401             -11.602948               2.000000
 MO|    115              -0.420755             -11.449314               2.000000
 MO|    116              -0.410715             -11.176124               2.000000
 MO|    117              -0.410696             -11.175597               2.000000
 MO|    118              -0.407787             -11.096449               2.000000
 MO|    119              -0.406873             -11.071575               2.000000
 MO|    120              -0.405923             -11.045723               2.000000
 MO|    121              -0.405828             -11.043134               2.000000
 MO|    122              -0.399658             -10.875239               2.000000
 MO|    123              -0.394088             -10.723687               2.000000
 MO|    124              -0.394062             -10.722966               2.000000
 MO|    125              -0.390535             -10.627005               2.000000
 MO|    126              -0.384941             -10.474786               2.000000
 MO|    127              -0.378306             -10.294231               2.000000
 MO|    128              -0.374940             -10.202635               2.000000
 MO|    129              -0.373865             -10.173382               2.000000
 MO|    130              -0.372627             -10.139700               2.000000
 MO|    131              -0.371854             -10.118654               2.000000
 MO|    132              -0.366585              -9.975283               2.000000
 MO|    133              -0.365968              -9.958493               2.000000
 MO|    134              -0.365472              -9.944988               2.000000
 MO|    135              -0.360745              -9.816360               2.000000
 MO|    136              -0.359734              -9.788865               2.000000
 MO|    137              -0.355062              -9.661740               2.000000
 MO|    138              -0.353714              -9.625049               2.000000
 MO|    139              -0.349502              -9.510436               2.000000
 MO|    140              -0.349457              -9.509207               2.000000
 MO|    141              -0.345981              -9.414631               2.000000
 MO|    142              -0.344199              -9.366140               2.000000
 MO|    143              -0.342893              -9.330604               2.000000
 MO|    144              -0.340772              -9.272877               2.000000
 MO|    145              -0.338080              -9.199621               2.000000
 MO|    146              -0.332920              -9.059223               2.000000
 MO|    147              -0.326735              -8.890915               2.000000
 MO|    148              -0.318797              -8.674897               2.000000
 MO|    149              -0.318136              -8.656910               2.000000
 MO|    150              -0.316365              -8.608729               2.000000
 MO|    151              -0.312431              -8.501688               2.000000
 MO|    152              -0.307400              -8.364778               2.000000
 MO|    153              -0.305620              -8.316345               2.000000
 MO|    154              -0.304362              -8.282114               2.000000
 MO|    155              -0.301938              -8.216159               2.000000
 MO|    156              -0.301827              -8.213133               2.000000
 MO|    157              -0.297881              -8.105751               2.000000
 MO|    158              -0.292072              -7.947684               2.000000
 MO|    159              -0.290359              -7.901077               2.000000
 MO|    160              -0.286539              -7.797117               2.000000
 MO|    161              -0.277409              -7.548681               2.000000
 MO|    162              -0.277082              -7.539771               2.000000
 MO|    163              -0.266331              -7.247241               2.000000
 MO|    164              -0.265453              -7.223352               2.000000
 MO|    165              -0.264044              -7.185011               2.000000
 MO|    166              -0.260634              -7.092220               2.000000
 MO|    167              -0.251786              -6.851457               2.000000
 MO|    168              -0.244969              -6.665933               2.000000
 MO|    169              -0.233366              -6.350210               2.000000
 MO|    170              -0.232145              -6.316989               2.000000
 MO|    171              -0.230365              -6.268548               2.000000
 MO|    172              -0.227467              -6.189697               2.000000
 MO|    173              -0.224056              -6.096875               2.000000
 MO|    174              -0.220023              -5.987126               2.000000
 MO|    175              -0.208697              -5.678930               2.000000
 MO|    176              -0.208066              -5.661769               2.000000
 MO|    177              -0.193268              -5.259082               2.000000
 MO|    178              -0.176945              -4.814926               2.000000
 MO|    179              -0.169885              -4.622818               2.000000
 MO|    180              -0.156278              -4.252551               2.000000
 MO|    181              -0.086172              -2.344849               0.000000
 MO|    182              -0.074155              -2.017849               0.000000
 MO|    183              -0.073902              -2.010983               0.000000
 MO|    184              -0.056033              -1.524738               0.000000
 MO|    185              -0.049717              -1.352877               0.000000
 MO|    186              -0.043865              -1.193626               0.000000
 MO|    187              -0.042055              -1.144381               0.000000
 MO|    188              -0.034683              -0.943765               0.000000
 MO|    189              -0.023096              -0.628485               0.000000
 MO|    190              -0.022589              -0.614676               0.000000
 MO|    191              -0.013613              -0.370436               0.000000
 MO|    192              -0.011768              -0.320216               0.000000
 MO|    193              -0.005021              -0.136634               0.000000
 MO|    194              -0.004380              -0.119172               0.000000
 MO|    195              -0.002023              -0.055037               0.000000
 MO|    196               0.001945               0.052929               0.000000
 MO|    197               0.003620               0.098492               0.000000
 MO|    198               0.007310               0.198908               0.000000
 MO|    199               0.008628               0.234789               0.000000
 MO|    200               0.011942               0.324960               0.000000
 MO|    201               0.015912               0.432978               0.000000
 MO|    202               0.022853               0.621857               0.000000
 MO|    203               0.026853               0.730713               0.000000
 MO|    204               0.026879               0.731409               0.000000
 MO|    205               0.035790               0.973896               0.000000
 MO|    206               0.038050               1.035395               0.000000
 MO|    207               0.038612               1.050691               0.000000
 MO|    208               0.039208               1.066899               0.000000
 MO|    209               0.047839               1.301779               0.000000
 MO|    210               0.053823               1.464600               0.000000
 MO|    211               0.054225               1.475530               0.000000
 MO|    212               0.054364               1.479318               0.000000
 MO|    213               0.056565               1.539202               0.000000
 MO|    214               0.059790               1.626964               0.000000
 MO|    215               0.064852               1.764699               0.000000
 MO|    216               0.065640               1.786158               0.000000
 MO|    217               0.070996               1.931907               0.000000
 MO|    218               0.072830               1.981810               0.000000
 MO|    219               0.074202               2.019148               0.000000
 MO|    220               0.075553               2.055900               0.000000
 MO|    221               0.077030               2.096101               0.000000
 MO|    222               0.078546               2.137337               0.000000
 MO|    223               0.086427               2.351812               0.000000
 MO|    224               0.090064               2.450776               0.000000
 MO|    225               0.090944               2.474710               0.000000
 MO|    226               0.091086               2.478583               0.000000
 MO|    227               0.091832               2.498872               0.000000
 MO|    228               0.095562               2.600372               0.000000
 MO|    229               0.098952               2.692631               0.000000
 MO|    230               0.100103               2.723932               0.000000
 MO|    231               0.102803               2.797421               0.000000
 MO|    232               0.107249               2.918380               0.000000
 MO|    233               0.109008               2.966267               0.000000
 MO|    234               0.114581               3.117903               0.000000
 MO|    235               0.115159               3.133629               0.000000
 MO|    236               0.119706               3.257365               0.000000
 MO|    237               0.121523               3.306809               0.000000
 MO|    238               0.123742               3.367192               0.000000
 MO|    239               0.124982               3.400922               0.000000
 MO|    240               0.129497               3.523797               0.000000
 MO|    241               0.131378               3.574972               0.000000
 MO|    242               0.136125               3.704144               0.000000
 MO|    243               0.141390               3.847414               0.000000
 MO|    244               0.147065               4.001854               0.000000
 MO|    245               0.147094               4.002618               0.000000
 MO|    246               0.149242               4.061072               0.000000
 MO|    247               0.151806               4.130843               0.000000
 MO|    248               0.152563               4.151458               0.000000
 MO|    249               0.154188               4.195665               0.000000
 MO|    250               0.158609               4.315960               0.000000
 MO|    251               0.158636               4.316696               0.000000
 MO|    252               0.159793               4.348187               0.000000
 MO|    253               0.161120               4.384307               0.000000
 MO|    254               0.163531               4.449917               0.000000
 MO|    255               0.165478               4.502874               0.000000
 MO|    256               0.165991               4.516840               0.000000
 MO|    257               0.174053               4.736231               0.000000
 MO|    258               0.176655               4.807018               0.000000
 MO|    259               0.176956               4.815204               0.000000
 MO|    260               0.184260               5.013957               0.000000
 MO|    261               0.186972               5.087775               0.000000
 MO|    262               0.187090               5.090985               0.000000
 MO|    263               0.190063               5.171873               0.000000
 MO|    264               0.191413               5.208626               0.000000
 MO|    265               0.192503               5.238281               0.000000
 MO|    266               0.192830               5.247173               0.000000
 MO|    267               0.196374               5.343611               0.000000
 MO|    268               0.197674               5.378990               0.000000
 MO|    269               0.200993               5.469293               0.000000
 MO|    270               0.202609               5.513281               0.000000
 MO|    271               0.205601               5.594691               0.000000
 MO|    272               0.205602               5.594702               0.000000
 MO|    273               0.205883               5.602363               0.000000
 MO|    274               0.208465               5.672623               0.000000
 MO|    275               0.210880               5.738332               0.000000
 MO|    276               0.211892               5.765884               0.000000
 MO|    277               0.217862               5.928316               0.000000
 MO|    278               0.219202               5.964800               0.000000
 MO|    279               0.219479               5.972331               0.000000
 MO|    280               0.221730               6.033575               0.000000
 MO| Sum:                                                             360.000000
 MO| E(Fermi):           -0.096269 a.u.         -2.619611 eV
 MO| Band gap:            0.070107 a.u.          1.907701 eV

    30 Broy./Diag. 0.40E+00    0.4     0.00000119     -2121.4697031497 -3.13E-05
  Decoupling Energy:                                              -0.0000202047

 MO| EIGENVALUES AND OCCUPATION NUMBERS AFTER SCF STEP 30
 MO|
 MO|  Index      Eigenvalue [a.u.]        Eigenvalue [eV]             Occupation
 MO|      1              -9.798701            -266.636213               2.000000
 MO|      2              -9.798701            -266.636202               2.000000
 MO|      3              -9.798686            -266.635814               2.000000
 MO|      4              -9.798686            -266.635810               2.000000
 MO|      5              -9.797561            -266.605192               2.000000
 MO|      6              -9.797560            -266.605180               2.000000
 MO|      7              -9.796109            -266.565679               2.000000
 MO|      8              -9.796097            -266.565355               2.000000
 MO|      9              -9.796093            -266.565253               2.000000
 MO|     10              -9.796062            -266.564416               2.000000
 MO|     11              -9.796059            -266.564331               2.000000
 MO|     12              -9.795943            -266.561176               2.000000
 MO|     13              -9.795845            -266.558496               2.000000
 MO|     14              -9.795845            -266.558487               2.000000
 MO|     15              -9.795800            -266.557285               2.000000
 MO|     16              -9.795800            -266.557278               2.000000
 MO|     17              -9.795549            -266.550437               2.000000
 MO|     18              -9.795500            -266.549116               2.000000
 MO|     19              -9.795462            -266.548075               2.000000
 MO|     20              -9.795448            -266.547708               2.000000
 MO|     21              -9.795348            -266.544961               2.000000
 MO|     22              -9.795336            -266.544642               2.000000
 MO|     23              -9.795321            -266.544244               2.000000
 MO|     24              -9.795318            -266.544163               2.000000
 MO|     25              -9.795145            -266.539448               2.000000
 MO|     26              -9.795138            -266.539268               2.000000
 MO|     27              -9.795104            -266.538339               2.000000
 MO|     28              -9.795045            -266.536732               2.000000
 MO|     29              -9.795034            -266.536423               2.000000
 MO|     30              -9.794988            -266.535179               2.000000
 MO|     31              -9.794576            -266.523973               2.000000
 MO|     32              -9.794564            -266.523652               2.000000
 MO|     33              -9.794562            -266.523589               2.000000
 MO|     34              -9.794549            -266.523238               2.000000
 MO|     35              -9.787628            -266.334905               2.000000
 MO|     36              -9.787627            -266.334887               2.000000
 MO|     37              -9.787463            -266.330403               2.000000
 MO|     38              -9.787463            -266.330401               2.000000
 MO|     39              -9.787433            -266.329607               2.000000
 MO|     40              -9.787433            -266.329603               2.000000
 MO|     41              -9.786111            -266.293624               2.000000
 MO|     42              -9.786110            -266.293605               2.000000
 MO|     43              -9.786109            -266.293578               2.000000
 MO|     44              -9.786108            -266.293553               2.000000
 MO|     45              -9.784346            -266.245595               2.000000
 MO|     46              -9.784343            -266.245519               2.000000
 MO|     47              -9.784320            -266.244884               2.000000
 MO|     48              -9.784316            -266.244772               2.000000
 MO|     49              -9.783984            -266.235736               2.000000
 MO|     50              -9.783972            -266.235410               2.000000
 MO|     51              -9.783902            -266.233503               2.000000
 MO|     52              -9.783895            -266.233336               2.000000
 MO|     53              -9.781363            -266.164417               2.000000
 MO|     54              -9.781363            -266.164410               2.000000
 MO|     55              -9.781362            -266.164406               2.000000
 MO|     56              -9.781362            -266.164403               2.000000
 MO|     57              -0.842938             -22.937510               2.000000
 MO|     58              -0.835321             -22.730251               2.000000
 MO|     59              -0.822216             -22.373631               2.000000
 MO|     60              -0.810980             -22.067888               2.000000
 MO|     61              -0.804547             -21.892832               2.000000
 MO|     62              -0.802246             -21.830237               2.000000
 MO|     63              -0.788411             -21.453750               2.000000
 MO|     64              -0.776190             -21.121198               2.000000
 MO|     65              -0.773156             -21.038633               2.000000
 MO|     66              -0.759103             -20.656256               2.000000
 MO|     67              -0.751837             -20.458512               2.000000
 MO|     68              -0.749264             -20.388501               2.000000
 MO|     69              -0.741398             -20.174465               2.000000
 MO|     70              -0.737407             -20.065871               2.000000
 MO|     71              -0.725018             -19.728756               2.000000
 MO|     72              -0.712691             -19.393303               2.000000
 MO|     73              -0.709631             -19.310035               2.000000
 MO|     74              -0.694465             -18.897343               2.000000
 MO|     75              -0.687096             -18.696837               2.000000
 MO|     76              -0.686216             -18.672900               2.000000
 MO|     77              -0.680103             -18.506552               2.000000
 MO|     78              -0.678198             -18.454710               2.000000
 MO|     79              -0.671701             -18.277916               2.000000
 MO|     80              -0.670079             -18.233763               2.000000
 MO|     81              -0.662485             -18.027147               2.000000
 MO|     82              -0.641459             -17.454994               2.000000
 MO|     83              -0.640436             -17.427153               2.000000
 MO|     84              -0.615412             -16.746203               2.000000
 MO|     85              -0.614759             -16.728445               2.000000
 MO|     86              -0.600848             -16.349916               2.000000
 MO|     87              -0.595407             -16.201858               2.000000
 MO|     88              -0.583668             -15.882423               2.000000
 MO|     89              -0.582423             -15.848524               2.000000
 MO|     90              -0.580011             -15.782899               2.000000
 MO|     91              -0.575323             -15.655330               2.000000
 MO|     92              -0.573510             -15.606010               2.000000
 MO|     93              -0.563703             -15.339144               2.000000
 MO|     94              -0.548251             -14.918659               2.000000
 MO|     95              -0.546499             -14.870983               2.000000
 MO|     96              -0.523290             -14.239441               2.000000
 MO|     97              -0.521971             -14.203547               2.000000
 MO|     98              -0.516990             -14.068022               2.000000
 MO|     99              -0.516200             -14.046523               2.000000
 MO|    100              -0.502082             -13.662359               2.000000
 MO|    101              -0.496906             -13.521487               2.000000
 MO|    102              -0.495359             -13.479408               2.000000
 MO|    103              -0.490647             -13.351188               2.000000
 MO|    104              -0.480199             -13.066872               2.000000
 MO|    105              -0.474577             -12.913906               2.000000
 MO|    106              -0.470275             -12.796839               2.000000
 MO|    107              -0.459234             -12.496385               2.000000
 MO|    108              -0.455228             -12.387383               2.000000
 MO|    109              -0.449303             -12.226170               2.000000
 MO|    110              -0.438783             -11.939883               2.000000
 MO|    111              -0.434160             -11.814091               2.000000
 MO|    112              -0.432859             -11.778698               2.000000
 MO|    113              -0.428457             -11.658911               2.000000
 MO|    114              -0.426401             -11.602958               2.000000
 MO|    115              -0.420755             -11.449324               2.000000
 MO|    116              -0.410715             -11.176135               2.000000
 MO|    117              -0.410696             -11.175608               2.000000
 MO|    118              -0.407787             -11.096459               2.000000
 MO|    119              -0.406873             -11.071586               2.000000
 MO|    120              -0.405923             -11.045733               2.000000
 MO|    121              -0.405828             -11.043145               2.000000
 MO|    122              -0.399658             -10.875250               2.000000
 MO|    123              -0.394089             -10.723697               2.000000
 MO|    124              -0.394062             -10.722977               2.000000
 MO|    125              -0.390536             -10.627018               2.000000
 MO|    126              -0.384942             -10.474797               2.000000
 MO|    127              -0.378306             -10.294243               2.000000
 MO|    128              -0.374940             -10.202645               2.000000
 MO|    129              -0.373865             -10.173393               2.000000
 MO|    130              -0.372628             -10.139711               2.000000
 MO|    131              -0.371854             -10.118667               2.000000
 MO|    132              -0.366585              -9.975296               2.000000
 MO|    133              -0.365968              -9.958505               2.000000
 MO|    134              -0.365472              -9.945000               2.000000
 MO|    135              -0.360745              -9.816372               2.000000
 MO|    136              -0.359735              -9.788878               2.000000
 MO|    137              -0.355063              -9.661751               2.000000
 MO|    138              -0.353714              -9.625060               2.000000
 MO|    139              -0.349503              -9.510447               2.000000
 MO|    140              -0.349457              -9.509218               2.000000
 MO|    141              -0.345982              -9.414644               2.000000
 MO|    142              -0.344200              -9.366151               2.000000
 MO|    143              -0.342894              -9.330615               2.000000
 MO|    144              -0.340772              -9.272888               2.000000
 MO|    145              -0.338080              -9.199632               2.000000
 MO|    146              -0.332921              -9.059234               2.000000
 MO|    147              -0.326735              -8.890925               2.000000
 MO|    148              -0.318797              -8.674909               2.000000
 MO|    149              -0.318136              -8.656919               2.000000
 MO|    150              -0.316365              -8.608739               2.000000
 MO|    151              -0.312432              -8.501700               2.000000
 MO|    152              -0.307400              -8.364789               2.000000
 MO|    153              -0.305620              -8.316355               2.000000
 MO|    154              -0.304363              -8.282126               2.000000
 MO|    155              -0.301939              -8.216172               2.000000
 MO|    156              -0.301827              -8.213144               2.000000
 MO|    157              -0.297881              -8.105762               2.000000
 MO|    158              -0.292072              -7.947696               2.000000
 MO|    159              -0.290360              -7.901089               2.000000
 MO|    160              -0.286539              -7.797127               2.000000
 MO|    161              -0.277409              -7.548693               2.000000
 MO|    162              -0.277082              -7.539783               2.000000
 MO|    163              -0.266332              -7.247252               2.000000
 MO|    164              -0.265454              -7.223364               2.000000
 MO|    165              -0.264045              -7.185023               2.000000
 MO|    166              -0.260635              -7.092233               2.000000
 MO|    167              -0.251787              -6.851470               2.000000
 MO|    168              -0.244969              -6.665944               2.000000
 MO|    169              -0.233366              -6.350223               2.000000
 MO|    170              -0.232146              -6.317001               2.000000
 MO|    171              -0.230365              -6.268561               2.000000
 MO|    172              -0.227468              -6.189707               2.000000
 MO|    173              -0.224056              -6.096885               2.000000
 MO|    174              -0.220023              -5.987139               2.000000
 MO|    175              -0.208697              -5.678942               2.000000
 MO|    176              -0.208067              -5.661781               2.000000
 MO|    177              -0.193268              -5.259094               2.000000
 MO|    178              -0.176946              -4.814939               2.000000
 MO|    179              -0.169886              -4.622830               2.000000
 MO|    180              -0.156279              -4.252563               2.000000
 MO|    181              -0.086172              -2.344862               0.000000
 MO|    182              -0.074155              -2.017862               0.000000
 MO|    183              -0.073903              -2.010993               0.000000
 MO|    184              -0.056033              -1.524748               0.000000
 MO|    185              -0.049718              -1.352889               0.000000
 MO|    186              -0.043865              -1.193638               0.000000
 MO|    187              -0.042056              -1.144392               0.000000
 MO|    188              -0.034683              -0.943775               0.000000
 MO|    189              -0.023097              -0.628496               0.000000
 MO|    190              -0.022589              -0.614686               0.000000
 MO|    191              -0.013614              -0.370448               0.000000
 MO|    192              -0.011768              -0.320229               0.000000
 MO|    193              -0.005022              -0.136645               0.000000
 MO|    194              -0.004380              -0.119180               0.000000
 MO|    195              -0.002023              -0.055048               0.000000
 MO|    196               0.001944               0.052897               0.000000
 MO|    197               0.003619               0.098465               0.000000
 MO|    198               0.007309               0.198877               0.000000
 MO|    199               0.008628               0.234780               0.000000
 MO|    200               0.011941               0.324931               0.000000
 MO|    201               0.015910               0.432945               0.000000
 MO|    202               0.022851               0.621819               0.000000
 MO|    203               0.026853               0.730701               0.000000
 MO|    204               0.026878               0.731381               0.000000
 MO|    205               0.035789               0.973858               0.000000
 MO|    206               0.038050               1.035391               0.000000
 MO|    207               0.038612               1.050680               0.000000
 MO|    208               0.039207               1.066870               0.000000
 MO|    209               0.047839               1.301752               0.000000
 MO|    210               0.053823               1.464587               0.000000
 MO|    211               0.054223               1.475491               0.000000
 MO|    212               0.054364               1.479313               0.000000
 MO|    213               0.056564               1.539184               0.000000
 MO|    214               0.059789               1.626955               0.000000
 MO|    215               0.064851               1.764688               0.000000
 MO|    216               0.065639               1.786116               0.000000
 MO|    217               0.070996               1.931898               0.000000
 MO|    218               0.072830               1.981800               0.000000
 MO|    219               0.074201               2.019119               0.000000
 MO|    220               0.075553               2.055889               0.000000
 MO|    221               0.077030               2.096093               0.000000
 MO|    222               0.078545               2.137327               0.000000
 MO|    223               0.086426               2.351778               0.000000
 MO|    224               0.090064               2.450765               0.000000
 MO|    225               0.090944               2.474701               0.000000
 MO|    226               0.091085               2.478549               0.000000
 MO|    227               0.091831               2.498846               0.000000
 MO|    228               0.095561               2.600345               0.000000
 MO|    229               0.098952               2.692608               0.000000
 MO|    230               0.100102               2.723923               0.000000
 MO|    231               0.102803               2.797412               0.000000
 MO|    232               0.107247               2.918342               0.000000
 MO|    233               0.109007               2.966241               0.000000
 MO|    234               0.114580               3.117875               0.000000
 MO|    235               0.115158               3.133605               0.000000
 MO|    236               0.119706               3.257355               0.000000
 MO|    237               0.121523               3.306797               0.000000
 MO|    238               0.123742               3.367184               0.000000
 MO|    239               0.124981               3.400914               0.000000
 MO|    240               0.129496               3.523765               0.000000
 MO|    241               0.131377               3.574944               0.000000
 MO|    242               0.136124               3.704120               0.000000
 MO|    243               0.141389               3.847385               0.000000
 MO|    244               0.147065               4.001843               0.000000
 MO|    245               0.147093               4.002592               0.000000
 MO|    246               0.149241               4.061064               0.000000
 MO|    247               0.151805               4.130819               0.000000
 MO|    248               0.152562               4.151430               0.000000
 MO|    249               0.154187               4.195654               0.000000
 MO|    250               0.158608               4.315948               0.000000
 MO|    251               0.158635               4.316688               0.000000
 MO|    252               0.159792               4.348159               0.000000
 MO|    253               0.161120               4.384286               0.000000
 MO|    254               0.163530               4.449888               0.000000
 MO|    255               0.165477               4.502845               0.000000
 MO|    256               0.165991               4.516838               0.000000
 MO|    257               0.174053               4.736224               0.000000
 MO|    258               0.176655               4.807016               0.000000
 MO|    259               0.176955               4.815192               0.000000
 MO|    260               0.184259               5.013944               0.000000
 MO|    261               0.186971               5.087753               0.000000
 MO|    262               0.187090               5.090967               0.000000
 MO|    263               0.190062               5.171854               0.000000
 MO|    264               0.191413               5.208616               0.000000
 MO|    265               0.192503               5.238270               0.000000
 MO|    266               0.192830               5.247172               0.000000
 MO|    267               0.196374               5.343600               0.000000
 MO|    268               0.197673               5.378953               0.000000
 MO|    269               0.200992               5.469270               0.000000
 MO|    270               0.202609               5.513274               0.000000
 MO|    271               0.205600               5.594674               0.000000
 MO|    272               0.205601               5.594675               0.000000
 MO|    273               0.205883               5.602349               0.000000
 MO|    274               0.208464               5.672604               0.000000
 MO|    275               0.210879               5.738315               0.000000
 MO|    276               0.211891               5.765857               0.000000
 MO|    277               0.217861               5.928307               0.000000
 MO|    278               0.219202               5.964786               0.000000
 MO|    279               0.219479               5.972318               0.000000
 MO|    280               0.221729               6.033552               0.000000
 MO| Sum:                                                             360.000000
 MO| E(Fermi):           -0.096269 a.u.         -2.619624 eV
 MO| Band gap:            0.070107 a.u.          1.907701 eV

    31 Broy./Diag. 0.40E+00    0.4     0.00000108     -2121.4696789877  2.42E-05
  Decoupling Energy:                                              -0.0000202105

 MO| EIGENVALUES AND OCCUPATION NUMBERS AFTER SCF STEP 31
 MO|
 MO|  Index      Eigenvalue [a.u.]        Eigenvalue [eV]             Occupation
 MO|      1              -9.798701            -266.636224               2.000000
 MO|      2              -9.798701            -266.636214               2.000000
 MO|      3              -9.798687            -266.635825               2.000000
 MO|      4              -9.798687            -266.635822               2.000000
 MO|      5              -9.797561            -266.605204               2.000000
 MO|      6              -9.797561            -266.605191               2.000000
 MO|      7              -9.796109            -266.565690               2.000000
 MO|      8              -9.796097            -266.565365               2.000000
 MO|      9              -9.796094            -266.565264               2.000000
 MO|     10              -9.796063            -266.564427               2.000000
 MO|     11              -9.796060            -266.564341               2.000000
 MO|     12              -9.795944            -266.561187               2.000000
 MO|     13              -9.795845            -266.558506               2.000000
 MO|     14              -9.795845            -266.558497               2.000000
 MO|     15              -9.795801            -266.557295               2.000000
 MO|     16              -9.795801            -266.557289               2.000000
 MO|     17              -9.795549            -266.550449               2.000000
 MO|     18              -9.795501            -266.549128               2.000000
 MO|     19              -9.795462            -266.548086               2.000000
 MO|     20              -9.795449            -266.547719               2.000000
 MO|     21              -9.795348            -266.544973               2.000000
 MO|     22              -9.795336            -266.544654               2.000000
 MO|     23              -9.795322            -266.544256               2.000000
 MO|     24              -9.795319            -266.544175               2.000000
 MO|     25              -9.795145            -266.539459               2.000000
 MO|     26              -9.795139            -266.539278               2.000000
 MO|     27              -9.795105            -266.538350               2.000000
 MO|     28              -9.795046            -266.536743               2.000000
 MO|     29              -9.795034            -266.536434               2.000000
 MO|     30              -9.794988            -266.535190               2.000000
 MO|     31              -9.794577            -266.523984               2.000000
 MO|     32              -9.794565            -266.523663               2.000000
 MO|     33              -9.794562            -266.523600               2.000000
 MO|     34              -9.794550            -266.523248               2.000000
 MO|     35              -9.787628            -266.334916               2.000000
 MO|     36              -9.787628            -266.334897               2.000000
 MO|     37              -9.787463            -266.330410               2.000000
 MO|     38              -9.787463            -266.330408               2.000000
 MO|     39              -9.787434            -266.329615               2.000000
 MO|     40              -9.787434            -266.329610               2.000000
 MO|     41              -9.786111            -266.293631               2.000000
 MO|     42              -9.786111            -266.293612               2.000000
 MO|     43              -9.786110            -266.293585               2.000000
 MO|     44              -9.786109            -266.293560               2.000000
 MO|     45              -9.784346            -266.245608               2.000000
 MO|     46              -9.784344            -266.245531               2.000000
 MO|     47              -9.784320            -266.244897               2.000000
 MO|     48              -9.784316            -266.244785               2.000000
 MO|     49              -9.783984            -266.235749               2.000000
 MO|     50              -9.783972            -266.235423               2.000000
 MO|     51              -9.783902            -266.233515               2.000000
 MO|     52              -9.783896            -266.233349               2.000000
 MO|     53              -9.781363            -266.164426               2.000000
 MO|     54              -9.781363            -266.164418               2.000000
 MO|     55              -9.781363            -266.164414               2.000000
 MO|     56              -9.781363            -266.164411               2.000000
 MO|     57              -0.842938             -22.937520               2.000000
 MO|     58              -0.835322             -22.730260               2.000000
 MO|     59              -0.822216             -22.373640               2.000000
 MO|     60              -0.810980             -22.067898               2.000000
 MO|     61              -0.804547             -21.892841               2.000000
 MO|     62              -0.802247             -21.830246               2.000000
 MO|     63              -0.788411             -21.453759               2.000000
 MO|     64              -0.776190             -21.121208               2.000000
 MO|     65              -0.773156             -21.038641               2.000000
 MO|     66              -0.759104             -20.656266               2.000000
 MO|     67              -0.751837             -20.458520               2.000000
 MO|     68              -0.749264             -20.388511               2.000000
 MO|     69              -0.741398             -20.174473               2.000000
 MO|     70              -0.737408             -20.065880               2.000000
 MO|     71              -0.725019             -19.728765               2.000000
 MO|     72              -0.712691             -19.393313               2.000000
 MO|     73              -0.709631             -19.310044               2.000000
 MO|     74              -0.694465             -18.897354               2.000000
 MO|     75              -0.687096             -18.696846               2.000000
 MO|     76              -0.686217             -18.672909               2.000000
 MO|     77              -0.680104             -18.506561               2.000000
 MO|     78              -0.678199             -18.454720               2.000000
 MO|     79              -0.671701             -18.277924               2.000000
 MO|     80              -0.670079             -18.233773               2.000000
 MO|     81              -0.662486             -18.027156               2.000000
 MO|     82              -0.641460             -17.455003               2.000000
 MO|     83              -0.640436             -17.427163               2.000000
 MO|     84              -0.615412             -16.746212               2.000000
 MO|     85              -0.614759             -16.728453               2.000000
 MO|     86              -0.600849             -16.349925               2.000000
 MO|     87              -0.595408             -16.201868               2.000000
 MO|     88              -0.583669             -15.882433               2.000000
 MO|     89              -0.582423             -15.848533               2.000000
 MO|     90              -0.580011             -15.782909               2.000000
 MO|     91              -0.575323             -15.655340               2.000000
 MO|     92              -0.573511             -15.606020               2.000000
 MO|     93              -0.563704             -15.339153               2.000000
 MO|     94              -0.548251             -14.918667               2.000000
 MO|     95              -0.546499             -14.870992               2.000000
 MO|     96              -0.523290             -14.239451               2.000000
 MO|     97              -0.521971             -14.203557               2.000000
 MO|     98              -0.516991             -14.068032               2.000000
 MO|     99              -0.516201             -14.046533               2.000000
 MO|    100              -0.502083             -13.662368               2.000000
 MO|    101              -0.496906             -13.521497               2.000000
 MO|    102              -0.495360             -13.479418               2.000000
 MO|    103              -0.490648             -13.351198               2.000000
 MO|    104              -0.480199             -13.066881               2.000000
 MO|    105              -0.474578             -12.913915               2.000000
 MO|    106              -0.470276             -12.796849               2.000000
 MO|    107              -0.459234             -12.496394               2.000000
 MO|    108              -0.455228             -12.387391               2.000000
 MO|    109              -0.449304             -12.226179               2.000000
 MO|    110              -0.438783             -11.939893               2.000000
 MO|    111              -0.434160             -11.814101               2.000000
 MO|    112              -0.432860             -11.778708               2.000000
 MO|    113              -0.428457             -11.658920               2.000000
 MO|    114              -0.426401             -11.602967               2.000000
 MO|    115              -0.420755             -11.449333               2.000000
 MO|    116              -0.410716             -11.176143               2.000000
 MO|    117              -0.410696             -11.175617               2.000000
 MO|    118              -0.407788             -11.096468               2.000000
 MO|    119              -0.406874             -11.071595               2.000000
 MO|    120              -0.405924             -11.045743               2.000000
 MO|    121              -0.405828             -11.043154               2.000000
 MO|    122              -0.399658             -10.875260               2.000000
 MO|    123              -0.394089             -10.723706               2.000000
 MO|    124              -0.394063             -10.722986               2.000000
 MO|    125              -0.390536             -10.627029               2.000000
 MO|    126              -0.384942             -10.474806               2.000000
 MO|    127              -0.378307             -10.294252               2.000000
 MO|    128              -0.374941             -10.202654               2.000000
 MO|    129              -0.373866             -10.173403               2.000000
 MO|    130              -0.372628             -10.139721               2.000000
 MO|    131              -0.371855             -10.118676               2.000000
 MO|    132              -0.366586              -9.975305               2.000000
 MO|    133              -0.365969              -9.958515               2.000000
 MO|    134              -0.365472              -9.945010               2.000000
 MO|    135              -0.360745              -9.816382               2.000000
 MO|    136              -0.359735              -9.788888               2.000000
 MO|    137              -0.355063              -9.661760               2.000000
 MO|    138              -0.353715              -9.625069               2.000000
 MO|    139              -0.349503              -9.510458               2.000000
 MO|    140              -0.349458              -9.509227               2.000000
 MO|    141              -0.345982              -9.414653               2.000000
 MO|    142              -0.344200              -9.366160               2.000000
 MO|    143              -0.342894              -9.330624               2.000000
 MO|    144              -0.340773              -9.272898               2.000000
 MO|    145              -0.338081              -9.199641               2.000000
 MO|    146              -0.332921              -9.059243               2.000000
 MO|    147              -0.326736              -8.890933               2.000000
 MO|    148              -0.318797              -8.674918               2.000000
 MO|    149              -0.318136              -8.656927               2.000000
 MO|    150              -0.316366              -8.608747               2.000000
 MO|    151              -0.312432              -8.501709               2.000000
 MO|    152              -0.307401              -8.364799               2.000000
 MO|    153              -0.305621              -8.316364               2.000000
 MO|    154              -0.304363              -8.282137               2.000000
 MO|    155              -0.301939              -8.216182               2.000000
 MO|    156              -0.301828              -8.213153               2.000000
 MO|    157              -0.297882              -8.105771               2.000000
 MO|    158              -0.292073              -7.947705               2.000000
 MO|    159              -0.290360              -7.901098               2.000000
 MO|    160              -0.286540              -7.797136               2.000000
 MO|    161              -0.277410              -7.548702               2.000000
 MO|    162              -0.277082              -7.539792               2.000000
 MO|    163              -0.266332              -7.247260               2.000000
 MO|    164              -0.265454              -7.223374               2.000000
 MO|    165              -0.264045              -7.185032               2.000000
 MO|    166              -0.260635              -7.092243               2.000000
 MO|    167              -0.251787              -6.851480               2.000000
 MO|    168              -0.244969              -6.665953               2.000000
 MO|    169              -0.233367              -6.350233               2.000000
 MO|    170              -0.232146              -6.317009               2.000000
 MO|    171              -0.230366              -6.268571               2.000000
 MO|    172              -0.227468              -6.189715               2.000000
 MO|    173              -0.224057              -6.096894               2.000000
 MO|    174              -0.220024              -5.987149               2.000000
 MO|    175              -0.208698              -5.678950               2.000000
 MO|    176              -0.208067              -5.661790               2.000000
 MO|    177              -0.193268              -5.259103               2.000000
 MO|    178              -0.176946              -4.814948               2.000000
 MO|    179              -0.169886              -4.622839               2.000000
 MO|    180              -0.156279              -4.252573               2.000000
 MO|    181              -0.086172              -2.344872               0.000000
 MO|    182              -0.074155              -2.017871               0.000000
 MO|    183              -0.073903              -2.011003               0.000000
 MO|    184              -0.056034              -1.524757               0.000000
 MO|    185              -0.049718              -1.352898               0.000000
 MO|    186              -0.043866              -1.193649               0.000000
 MO|    187              -0.042056              -1.144400               0.000000
 MO|    188              -0.034683              -0.943784               0.000000
 MO|    189              -0.023097              -0.628504               0.000000
 MO|    190              -0.022590              -0.614695               0.000000
 MO|    191              -0.013614              -0.370458               0.000000
 MO|    192              -0.011769              -0.320239               0.000000
 MO|    193              -0.005022              -0.136663               0.000000
 MO|    194              -0.004380              -0.119196               0.000000
 MO|    195              -0.002023              -0.055057               0.000000
 MO|    196               0.001943               0.052865               0.000000
 MO|    197               0.003618               0.098437               0.000000
 MO|    198               0.007307               0.198842               0.000000
 MO|    199               0.008628               0.234770               0.000000
 MO|    200               0.011940               0.324898               0.000000
 MO|    201               0.015909               0.432910               0.000000
 MO|    202               0.022850               0.621778               0.000000
 MO|    203               0.026852               0.730692               0.000000
 MO|    204               0.026877               0.731351               0.000000
 MO|    205               0.035787               0.973814               0.000000
 MO|    206               0.038050               1.035381               0.000000
 MO|    207               0.038611               1.050670               0.000000
 MO|    208               0.039206               1.066840               0.000000
 MO|    209               0.047837               1.301721               0.000000
 MO|    210               0.053822               1.464565               0.000000
 MO|    211               0.054222               1.475447               0.000000
 MO|    212               0.054363               1.479303               0.000000
 MO|    213               0.056563               1.539157               0.000000
 MO|    214               0.059789               1.626945               0.000000
 MO|    215               0.064851               1.764675               0.000000
 MO|    216               0.065637               1.786068               0.000000
 MO|    217               0.070995               1.931884               0.000000
 MO|    218               0.072829               1.981788               0.000000
 MO|    219               0.074200               2.019089               0.000000
 MO|    220               0.075552               2.055877               0.000000
 MO|    221               0.077030               2.096081               0.000000
 MO|    222               0.078545               2.137315               0.000000
 MO|    223               0.086425               2.351741               0.000000
 MO|    224               0.090064               2.450754               0.000000
 MO|    225               0.090943               2.474689               0.000000
 MO|    226               0.091084               2.478512               0.000000
 MO|    227               0.091830               2.498825               0.000000
 MO|    228               0.095560               2.600322               0.000000
 MO|    229               0.098951               2.692589               0.000000
 MO|    230               0.100102               2.723910               0.000000
 MO|    231               0.102803               2.797400               0.000000
 MO|    232               0.107246               2.918303               0.000000
 MO|    233               0.109006               2.966215               0.000000
 MO|    234               0.114579               3.117846               0.000000
 MO|    235               0.115157               3.133583               0.000000
 MO|    236               0.119705               3.257343               0.000000
 MO|    237               0.121522               3.306786               0.000000
 MO|    238               0.123741               3.367170               0.000000
 MO|    239               0.124981               3.400903               0.000000
 MO|    240               0.129495               3.523731               0.000000
 MO|    241               0.131376               3.574917               0.000000
 MO|    242               0.136123               3.704096               0.000000
 MO|    243               0.141388               3.847353               0.000000
 MO|    244               0.147064               4.001821               0.000000
 MO|    245               0.147092               4.002565               0.000000
 MO|    246               0.149241               4.061052               0.000000
 MO|    247               0.151804               4.130792               0.000000
 MO|    248               0.152561               4.151400               0.000000
 MO|    249               0.154187               4.195632               0.000000
 MO|    250               0.158608               4.315937               0.000000
 MO|    251               0.158635               4.316674               0.000000
 MO|    252               0.159791               4.348128               0.000000
 MO|    253               0.161119               4.384265               0.000000
 MO|    254               0.163529               4.449855               0.000000
 MO|    255               0.165475               4.502816               0.000000
 MO|    256               0.165990               4.516823               0.000000
 MO|    257               0.174053               4.736213               0.000000
 MO|    258               0.176654               4.807000               0.000000
 MO|    259               0.176954               4.815176               0.000000
 MO|    260               0.184259               5.013933               0.000000
 MO|    261               0.186971               5.087733               0.000000
 MO|    262               0.187089               5.090951               0.000000
 MO|    263               0.190061               5.171834               0.000000
 MO|    264               0.191413               5.208603               0.000000
 MO|    265               0.192502               5.238250               0.000000
 MO|    266               0.192830               5.247164               0.000000
 MO|    267               0.196373               5.343584               0.000000
 MO|    268               0.197671               5.378914               0.000000
 MO|    269               0.200991               5.469249               0.000000
 MO|    270               0.202609               5.513259               0.000000
 MO|    271               0.205600               5.594650               0.000000
 MO|    272               0.205600               5.594658               0.000000
 MO|    273               0.205882               5.602332               0.000000
 MO|    274               0.208464               5.672585               0.000000
 MO|    275               0.210879               5.738300               0.000000
 MO|    276               0.211890               5.765828               0.000000
 MO|    277               0.217861               5.928289               0.000000
 MO|    278               0.219201               5.964769               0.000000
 MO|    279               0.219478               5.972299               0.000000
 MO|    280               0.221728               6.033529               0.000000
 MO| Sum:                                                             360.000000
 MO| E(Fermi):           -0.096270 a.u.         -2.619634 eV
 MO| Band gap:            0.070107 a.u.          1.907701 eV

    32 Broy./Diag. 0.40E+00    0.4     0.00000082     -2121.4696490005  3.00E-05

  *** SCF run converged in    32 steps ***


  Electronic density on regular grids:       -270.2676915171       89.7323084829
  Core density on regular grids:               24.0000000000     -336.0000000000
  Hard and soft densities (Lebedev):         -744.7242553278     -654.9919389517
  Total Rho_soft + Rho1_hard - Rho1_soft     -360.0000078932
  Total charge density (r-space):            -336.0000078932
  Total Rho_soft + Rho0_soft (g-space):        -0.0000087556

  Overlap energy of the core charge distribution:               0.00009743946660
  Self energy of the core charge distribution:              -1664.16518567973344
  Core Hamiltonian energy:                                   -377.95454390470832
  Hartree energy:                                             698.81573273490733
  Exchange-correlation energy:                               -124.26802370365260

  GAPW| Exc from hard and soft atomic rho1:                  -184.67967499839170
  GAPW| local Eh = 1 center integrals:                       -469.21805088834520
  Electronic entropic energy:                                  -0.00000000000000
  Fermi energy:                                                -0.09626977464605

  Total energy:                                             -2121.46964900045759

 MO| EIGENVALUES AND OCCUPATION NUMBERS
 MO|
 MO|  Index      Eigenvalue [a.u.]        Eigenvalue [eV]             Occupation
 MO|      1              -9.798701            -266.636224               2.000000
 MO|      2              -9.798701            -266.636214               2.000000
 MO|      3              -9.798687            -266.635825               2.000000
 MO|      4              -9.798687            -266.635822               2.000000
 MO|      5              -9.797561            -266.605204               2.000000
 MO|      6              -9.797561            -266.605191               2.000000
 MO|      7              -9.796109            -266.565690               2.000000
 MO|      8              -9.796097            -266.565365               2.000000
 MO|      9              -9.796094            -266.565264               2.000000
 MO|     10              -9.796063            -266.564427               2.000000
 MO|     11              -9.796060            -266.564341               2.000000
 MO|     12              -9.795944            -266.561187               2.000000
 MO|     13              -9.795845            -266.558506               2.000000
 MO|     14              -9.795845            -266.558497               2.000000
 MO|     15              -9.795801            -266.557295               2.000000
 MO|     16              -9.795801            -266.557289               2.000000
 MO|     17              -9.795549            -266.550449               2.000000
 MO|     18              -9.795501            -266.549128               2.000000
 MO|     19              -9.795462            -266.548086               2.000000
 MO|     20              -9.795449            -266.547719               2.000000
 MO|     21              -9.795348            -266.544973               2.000000
 MO|     22              -9.795336            -266.544654               2.000000
 MO|     23              -9.795322            -266.544256               2.000000
 MO|     24              -9.795319            -266.544175               2.000000
 MO|     25              -9.795145            -266.539459               2.000000
 MO|     26              -9.795139            -266.539278               2.000000
 MO|     27              -9.795105            -266.538350               2.000000
 MO|     28              -9.795046            -266.536743               2.000000
 MO|     29              -9.795034            -266.536434               2.000000
 MO|     30              -9.794988            -266.535190               2.000000
 MO|     31              -9.794577            -266.523984               2.000000
 MO|     32              -9.794565            -266.523663               2.000000
 MO|     33              -9.794562            -266.523600               2.000000
 MO|     34              -9.794550            -266.523248               2.000000
 MO|     35              -9.787628            -266.334916               2.000000
 MO|     36              -9.787628            -266.334897               2.000000
 MO|     37              -9.787463            -266.330410               2.000000
 MO|     38              -9.787463            -266.330408               2.000000
 MO|     39              -9.787434            -266.329615               2.000000
 MO|     40              -9.787434            -266.329610               2.000000
 MO|     41              -9.786111            -266.293631               2.000000
 MO|     42              -9.786111            -266.293612               2.000000
 MO|     43              -9.786110            -266.293585               2.000000
 MO|     44              -9.786109            -266.293560               2.000000
 MO|     45              -9.784346            -266.245608               2.000000
 MO|     46              -9.784344            -266.245531               2.000000
 MO|     47              -9.784320            -266.244897               2.000000
 MO|     48              -9.784316            -266.244785               2.000000
 MO|     49              -9.783984            -266.235749               2.000000
 MO|     50              -9.783972            -266.235423               2.000000
 MO|     51              -9.783902            -266.233515               2.000000
 MO|     52              -9.783896            -266.233349               2.000000
 MO|     53              -9.781363            -266.164426               2.000000
 MO|     54              -9.781363            -266.164418               2.000000
 MO|     55              -9.781363            -266.164414               2.000000
 MO|     56              -9.781363            -266.164411               2.000000
 MO|     57              -0.842938             -22.937520               2.000000
 MO|     58              -0.835322             -22.730260               2.000000
 MO|     59              -0.822216             -22.373640               2.000000
 MO|     60              -0.810980             -22.067898               2.000000
 MO|     61              -0.804547             -21.892841               2.000000
 MO|     62              -0.802247             -21.830246               2.000000
 MO|     63              -0.788411             -21.453759               2.000000
 MO|     64              -0.776190             -21.121208               2.000000
 MO|     65              -0.773156             -21.038641               2.000000
 MO|     66              -0.759104             -20.656266               2.000000
 MO|     67              -0.751837             -20.458520               2.000000
 MO|     68              -0.749264             -20.388511               2.000000
 MO|     69              -0.741398             -20.174473               2.000000
 MO|     70              -0.737408             -20.065880               2.000000
 MO|     71              -0.725019             -19.728765               2.000000
 MO|     72              -0.712691             -19.393313               2.000000
 MO|     73              -0.709631             -19.310044               2.000000
 MO|     74              -0.694465             -18.897354               2.000000
 MO|     75              -0.687096             -18.696846               2.000000
 MO|     76              -0.686217             -18.672909               2.000000
 MO|     77              -0.680104             -18.506561               2.000000
 MO|     78              -0.678199             -18.454720               2.000000
 MO|     79              -0.671701             -18.277924               2.000000
 MO|     80              -0.670079             -18.233773               2.000000
 MO|     81              -0.662486             -18.027156               2.000000
 MO|     82              -0.641460             -17.455003               2.000000
 MO|     83              -0.640436             -17.427163               2.000000
 MO|     84              -0.615412             -16.746212               2.000000
 MO|     85              -0.614759             -16.728453               2.000000
 MO|     86              -0.600849             -16.349925               2.000000
 MO|     87              -0.595408             -16.201868               2.000000
 MO|     88              -0.583669             -15.882433               2.000000
 MO|     89              -0.582423             -15.848533               2.000000
 MO|     90              -0.580011             -15.782909               2.000000
 MO|     91              -0.575323             -15.655340               2.000000
 MO|     92              -0.573511             -15.606020               2.000000
 MO|     93              -0.563704             -15.339153               2.000000
 MO|     94              -0.548251             -14.918667               2.000000
 MO|     95              -0.546499             -14.870992               2.000000
 MO|     96              -0.523290             -14.239451               2.000000
 MO|     97              -0.521971             -14.203557               2.000000
 MO|     98              -0.516991             -14.068032               2.000000
 MO|     99              -0.516201             -14.046533               2.000000
 MO|    100              -0.502083             -13.662368               2.000000
 MO|    101              -0.496906             -13.521497               2.000000
 MO|    102              -0.495360             -13.479418               2.000000
 MO|    103              -0.490648             -13.351198               2.000000
 MO|    104              -0.480199             -13.066881               2.000000
 MO|    105              -0.474578             -12.913915               2.000000
 MO|    106              -0.470276             -12.796849               2.000000
 MO|    107              -0.459234             -12.496394               2.000000
 MO|    108              -0.455228             -12.387391               2.000000
 MO|    109              -0.449304             -12.226179               2.000000
 MO|    110              -0.438783             -11.939893               2.000000
 MO|    111              -0.434160             -11.814101               2.000000
 MO|    112              -0.432860             -11.778708               2.000000
 MO|    113              -0.428457             -11.658920               2.000000
 MO|    114              -0.426401             -11.602967               2.000000
 MO|    115              -0.420755             -11.449333               2.000000
 MO|    116              -0.410716             -11.176143               2.000000
 MO|    117              -0.410696             -11.175617               2.000000
 MO|    118              -0.407788             -11.096468               2.000000
 MO|    119              -0.406874             -11.071595               2.000000
 MO|    120              -0.405924             -11.045743               2.000000
 MO|    121              -0.405828             -11.043154               2.000000
 MO|    122              -0.399658             -10.875260               2.000000
 MO|    123              -0.394089             -10.723706               2.000000
 MO|    124              -0.394063             -10.722986               2.000000
 MO|    125              -0.390536             -10.627029               2.000000
 MO|    126              -0.384942             -10.474806               2.000000
 MO|    127              -0.378307             -10.294252               2.000000
 MO|    128              -0.374941             -10.202654               2.000000
 MO|    129              -0.373866             -10.173403               2.000000
 MO|    130              -0.372628             -10.139721               2.000000
 MO|    131              -0.371855             -10.118676               2.000000
 MO|    132              -0.366586              -9.975305               2.000000
 MO|    133              -0.365969              -9.958515               2.000000
 MO|    134              -0.365472              -9.945010               2.000000
 MO|    135              -0.360745              -9.816382               2.000000
 MO|    136              -0.359735              -9.788888               2.000000
 MO|    137              -0.355063              -9.661760               2.000000
 MO|    138              -0.353715              -9.625069               2.000000
 MO|    139              -0.349503              -9.510458               2.000000
 MO|    140              -0.349458              -9.509227               2.000000
 MO|    141              -0.345982              -9.414653               2.000000
 MO|    142              -0.344200              -9.366160               2.000000
 MO|    143              -0.342894              -9.330624               2.000000
 MO|    144              -0.340773              -9.272898               2.000000
 MO|    145              -0.338081              -9.199641               2.000000
 MO|    146              -0.332921              -9.059243               2.000000
 MO|    147              -0.326736              -8.890933               2.000000
 MO|    148              -0.318797              -8.674918               2.000000
 MO|    149              -0.318136              -8.656927               2.000000
 MO|    150              -0.316366              -8.608747               2.000000
 MO|    151              -0.312432              -8.501709               2.000000
 MO|    152              -0.307401              -8.364799               2.000000
 MO|    153              -0.305621              -8.316364               2.000000
 MO|    154              -0.304363              -8.282137               2.000000
 MO|    155              -0.301939              -8.216182               2.000000
 MO|    156              -0.301828              -8.213153               2.000000
 MO|    157              -0.297882              -8.105771               2.000000
 MO|    158              -0.292073              -7.947705               2.000000
 MO|    159              -0.290360              -7.901098               2.000000
 MO|    160              -0.286540              -7.797136               2.000000
 MO|    161              -0.277410              -7.548702               2.000000
 MO|    162              -0.277082              -7.539792               2.000000
 MO|    163              -0.266332              -7.247260               2.000000
 MO|    164              -0.265454              -7.223374               2.000000
 MO|    165              -0.264045              -7.185032               2.000000
 MO|    166              -0.260635              -7.092243               2.000000
 MO|    167              -0.251787              -6.851480               2.000000
 MO|    168              -0.244969              -6.665953               2.000000
 MO|    169              -0.233367              -6.350233               2.000000
 MO|    170              -0.232146              -6.317009               2.000000
 MO|    171              -0.230366              -6.268571               2.000000
 MO|    172              -0.227468              -6.189715               2.000000
 MO|    173              -0.224057              -6.096894               2.000000
 MO|    174              -0.220024              -5.987149               2.000000
 MO|    175              -0.208698              -5.678950               2.000000
 MO|    176              -0.208067              -5.661790               2.000000
 MO|    177              -0.193268              -5.259103               2.000000
 MO|    178              -0.176946              -4.814948               2.000000
 MO|    179              -0.169886              -4.622839               2.000000
 MO|    180              -0.156279              -4.252573               2.000000
 MO|    181              -0.086172              -2.344872               0.000000
 MO|    182              -0.074155              -2.017871               0.000000
 MO|    183              -0.073903              -2.011003               0.000000
 MO|    184              -0.056034              -1.524757               0.000000
 MO|    185              -0.049718              -1.352898               0.000000
 MO|    186              -0.043866              -1.193649               0.000000
 MO|    187              -0.042056              -1.144400               0.000000
 MO|    188              -0.034683              -0.943784               0.000000
 MO|    189              -0.023097              -0.628504               0.000000
 MO|    190              -0.022590              -0.614695               0.000000
 MO|    191              -0.013614              -0.370458               0.000000
 MO|    192              -0.011769              -0.320239               0.000000
 MO|    193              -0.005022              -0.136663               0.000000
 MO|    194              -0.004380              -0.119196               0.000000
 MO|    195              -0.002023              -0.055057               0.000000
 MO|    196               0.001943               0.052865               0.000000
 MO|    197               0.003618               0.098437               0.000000
 MO|    198               0.007307               0.198842               0.000000
 MO|    199               0.008628               0.234770               0.000000
 MO|    200               0.011940               0.324898               0.000000
 MO|    201               0.015909               0.432910               0.000000
 MO|    202               0.022850               0.621778               0.000000
 MO|    203               0.026852               0.730692               0.000000
 MO|    204               0.026877               0.731351               0.000000
 MO|    205               0.035787               0.973814               0.000000
 MO|    206               0.038050               1.035381               0.000000
 MO|    207               0.038611               1.050670               0.000000
 MO|    208               0.039206               1.066840               0.000000
 MO|    209               0.047837               1.301721               0.000000
 MO|    210               0.053822               1.464565               0.000000
 MO|    211               0.054222               1.475447               0.000000
 MO|    212               0.054363               1.479303               0.000000
 MO|    213               0.056563               1.539157               0.000000
 MO|    214               0.059789               1.626945               0.000000
 MO|    215               0.064851               1.764675               0.000000
 MO|    216               0.065637               1.786068               0.000000
 MO|    217               0.070995               1.931884               0.000000
 MO|    218               0.072829               1.981788               0.000000
 MO|    219               0.074200               2.019089               0.000000
 MO|    220               0.075552               2.055877               0.000000
 MO|    221               0.077030               2.096081               0.000000
 MO|    222               0.078545               2.137315               0.000000
 MO|    223               0.086425               2.351741               0.000000
 MO|    224               0.090064               2.450754               0.000000
 MO|    225               0.090943               2.474689               0.000000
 MO|    226               0.091084               2.478512               0.000000
 MO|    227               0.091830               2.498825               0.000000
 MO|    228               0.095560               2.600322               0.000000
 MO|    229               0.098951               2.692589               0.000000
 MO|    230               0.100102               2.723910               0.000000
 MO|    231               0.102803               2.797400               0.000000
 MO|    232               0.107246               2.918303               0.000000
 MO|    233               0.109006               2.966215               0.000000
 MO|    234               0.114579               3.117846               0.000000
 MO|    235               0.115157               3.133583               0.000000
 MO|    236               0.119705               3.257343               0.000000
 MO|    237               0.121522               3.306786               0.000000
 MO|    238               0.123741               3.367170               0.000000
 MO|    239               0.124981               3.400903               0.000000
 MO|    240               0.129495               3.523731               0.000000
 MO|    241               0.131376               3.574917               0.000000
 MO|    242               0.136123               3.704096               0.000000
 MO|    243               0.141388               3.847353               0.000000
 MO|    244               0.147064               4.001821               0.000000
 MO|    245               0.147092               4.002565               0.000000
 MO|    246               0.149241               4.061052               0.000000
 MO|    247               0.151804               4.130792               0.000000
 MO|    248               0.152561               4.151400               0.000000
 MO|    249               0.154187               4.195632               0.000000
 MO|    250               0.158608               4.315937               0.000000
 MO|    251               0.158635               4.316674               0.000000
 MO|    252               0.159791               4.348128               0.000000
 MO|    253               0.161119               4.384265               0.000000
 MO|    254               0.163529               4.449855               0.000000
 MO|    255               0.165475               4.502816               0.000000
 MO|    256               0.165990               4.516823               0.000000
 MO|    257               0.174053               4.736213               0.000000
 MO|    258               0.176654               4.807000               0.000000
 MO|    259               0.176954               4.815176               0.000000
 MO|    260               0.184259               5.013933               0.000000
 MO|    261               0.186971               5.087733               0.000000
 MO|    262               0.187089               5.090951               0.000000
 MO|    263               0.190061               5.171834               0.000000
 MO|    264               0.191413               5.208603               0.000000
 MO|    265               0.192502               5.238250               0.000000
 MO|    266               0.192830               5.247164               0.000000
 MO|    267               0.196373               5.343584               0.000000
 MO|    268               0.197671               5.378914               0.000000
 MO|    269               0.200991               5.469249               0.000000
 MO|    270               0.202609               5.513259               0.000000
 MO|    271               0.205600               5.594650               0.000000
 MO|    272               0.205600               5.594658               0.000000
 MO|    273               0.205882               5.602332               0.000000
 MO|    274               0.208464               5.672585               0.000000
 MO|    275               0.210879               5.738300               0.000000
 MO|    276               0.211890               5.765828               0.000000
 MO|    277               0.217861               5.928289               0.000000
 MO|    278               0.219201               5.964769               0.000000
 MO|    279               0.219478               5.972299               0.000000
 MO|    280               0.221728               6.033529               0.000000
 MO| Sum:                                                             360.000000
 MO| E(Fermi):           -0.096270 a.u.         -2.619634 eV
 MO| Band gap:            0.070107 a.u.          1.907701 eV


 !-----------------------------------------------------------------------------!
                     Mulliken Population Analysis

 #  Atom  Element  Kind  Atomic population                           Net charge
       1     H        1          0.948565                              0.051435
       2     C        2          6.078999                             -0.078999
       3     C        2          6.085585                             -0.085585
       4     H        1          0.992531                              0.007469
       5     C        2          6.084847                             -0.084847
       6     C        2          6.084847                             -0.084847
       7     C        2          6.002803                             -0.002803
       8     C        2          6.085585                             -0.085585
       9     H        1          0.948565                              0.051435
      10     C        2          5.789085                              0.210915
      11     C        2          6.093569                             -0.093569
      12     C        2          5.924912                              0.075088
      13     C        2          5.926867                              0.073133
      14     C        2          6.093569                             -0.093569
      15     C        2          5.999232                              0.000768
      16     C        2          5.999994                              0.000006
      17     H        1          0.990170                              0.009830
      18     C        2          6.000417                             -0.000417
      19     C        2          6.078999                             -0.078999
      20     C        2          5.924912                              0.075088
      21     H        1          0.960076                              0.039924
      22     C        2          5.926867                              0.073133
      23     C        2          5.921934                              0.078066
      24     C        2          6.054166                             -0.054166
      25     C        2          6.002803                             -0.002803
      26     H        1          1.010222                             -0.010222
      27     C        2          5.999232                              0.000768
      28     H        1          0.960076                              0.039924
      29     C        2          6.501001                             -0.501001
      30     C        2          5.789085                              0.210915
      31     H        1          1.010222                             -0.010222
      32     C        2          6.005549                             -0.005549
      33     H        1          1.010222                             -0.010222
      34     C        2          5.924912                              0.075088
      35     H        1          0.990170                              0.009830
      36     H        1          0.948565                              0.051435
      37     H        1          0.893589                              0.106411
      38     C        2          5.924912                              0.075088
      39     C        2          6.085585                             -0.085585
      40     C        2          6.054166                             -0.054166
      41     C        2          5.990772                              0.009228
      42     C        2          5.999994                              0.000006
      43     C        2          5.921934                              0.078066
      44     C        2          5.921934                              0.078066
      45     C        2          6.000417                             -0.000417
      46     H        1          0.960076                              0.039924
      47     H        1          0.893589                              0.106411
      48     C        2          5.999232                              0.000768
      49     C        2          5.921934                              0.078066
      50     C        2          5.789085                              0.210915
      51     C        2          5.999232                              0.000768
      52     C        2          5.990772                              0.009228
      53     H        1          0.893589                              0.106411
      54     H        1          0.990170                              0.009830
      55     C        2          6.093569                             -0.093569
      56     H        1          0.893589                              0.106411
      57     C        2          6.078999                             -0.078999
      58     H        1          0.948565                              0.051435
      59     H        1          0.992531                              0.007469
      60     C        2          5.999994                              0.000006
      61     C        2          5.999994                              0.000006
      62     C        2          6.085585                             -0.085585
      63     C        2          6.054166                             -0.054166
      64     H        1          0.992531                              0.007469
      65     C        2          5.926867                              0.073133
      66     C        2          6.084847                             -0.084847
      67     C        2          6.501001                             -0.501001
      68     C        2          5.789085                              0.210915
      69     C        2          6.078999                             -0.078999
      70     H        1          0.992531                              0.007469
      71     C        2          6.054166                             -0.054166
      72     C        2          6.005549                             -0.005549
      73     C        2          5.990772                              0.009228
      74     H        1          0.990170                              0.009830
      75     C        2          6.084847                             -0.084847
      76     C        2          5.990772                              0.009228
      77     H        1          0.960076                              0.039924
      78     C        2          6.093569                             -0.093569
      79     H        1          1.010222                             -0.010222
      80     C        2          5.926867                              0.073133
 # Total charge                            360.000000                 -0.000000

 !-----------------------------------------------------------------------------!

 !-----------------------------------------------------------------------------!
                           Hirshfeld Charges

  #Atom  Element  Kind  Ref Charge     Population                    Net charge
      1       H      1       1.000          0.511                         0.489
      2       C      2       6.000          6.500                        -0.500
      3       C      2       6.000          6.493                        -0.493
      4       H      1       1.000          0.514                         0.486
      5       C      2       6.000          6.491                        -0.491
      6       C      2       6.000          6.491                        -0.491
      7       C      2       6.000          6.004                        -0.004
      8       C      2       6.000          6.493                        -0.493
      9       H      1       1.000          0.511                         0.489
     10       C      2       6.000          6.002                        -0.002
     11       C      2       6.000          6.515                        -0.515
     12       C      2       6.000          5.993                         0.007
     13       C      2       6.000          5.995                         0.005
     14       C      2       6.000          6.515                        -0.515
     15       C      2       6.000          5.997                         0.003
     16       C      2       6.000          5.998                         0.002
     17       H      1       1.000          0.514                         0.486
     18       C      2       6.000          6.000                         0.000
     19       C      2       6.000          6.500                        -0.500
     20       C      2       6.000          5.993                         0.007
     21       H      1       1.000          0.510                         0.490
     22       C      2       6.000          5.995                         0.005
     23       C      2       6.000          5.990                         0.010
     24       C      2       6.000          6.487                        -0.487
     25       C      2       6.000          6.004                        -0.004
     26       H      1       1.000          0.515                         0.485
     27       C      2       6.000          5.997                         0.003
     28       H      1       1.000          0.510                         0.490
     29       C      2       6.000          6.860                        -0.860
     30       C      2       6.000          6.002                        -0.002
     31       H      1       1.000          0.515                         0.485
     32       C      2       6.000          5.999                         0.001
     33       H      1       1.000          0.515                         0.485
     34       C      2       6.000          5.993                         0.007
     35       H      1       1.000          0.514                         0.486
     36       H      1       1.000          0.511                         0.489
     37       H      1       1.000          0.514                         0.486
     38       C      2       6.000          5.993                         0.007
     39       C      2       6.000          6.493                        -0.493
     40       C      2       6.000          6.487                        -0.487
     41       C      2       6.000          6.003                        -0.003
     42       C      2       6.000          5.998                         0.002
     43       C      2       6.000          5.990                         0.010
     44       C      2       6.000          5.990                         0.010
     45       C      2       6.000          6.000                         0.000
     46       H      1       1.000          0.510                         0.490
     47       H      1       1.000          0.514                         0.486
     48       C      2       6.000          5.997                         0.003
     49       C      2       6.000          5.990                         0.010
     50       C      2       6.000          6.002                        -0.002
     51       C      2       6.000          5.997                         0.003
     52       C      2       6.000          6.003                        -0.003
     53       H      1       1.000          0.514                         0.486
     54       H      1       1.000          0.514                         0.486
     55       C      2       6.000          6.515                        -0.515
     56       H      1       1.000          0.514                         0.486
     57       C      2       6.000          6.500                        -0.500
     58       H      1       1.000          0.511                         0.489
     59       H      1       1.000          0.514                         0.486
     60       C      2       6.000          5.998                         0.002
     61       C      2       6.000          5.998                         0.002
     62       C      2       6.000          6.493                        -0.493
     63       C      2       6.000          6.487                        -0.487
     64       H      1       1.000          0.514                         0.486
     65       C      2       6.000          5.995                         0.005
     66       C      2       6.000          6.491                        -0.491
     67       C      2       6.000          6.860                        -0.860
     68       C      2       6.000          6.002                        -0.002
     69       C      2       6.000          6.500                        -0.500
     70       H      1       1.000          0.514                         0.486
     71       C      2       6.000          6.487                        -0.487
     72       C      2       6.000          5.999                         0.001
     73       C      2       6.000          6.003                        -0.003
     74       H      1       1.000          0.514                         0.486
     75       C      2       6.000          6.491                        -0.491
     76       C      2       6.000          6.003                        -0.003
     77       H      1       1.000          0.510                         0.490
     78       C      2       6.000          6.515                        -0.515
     79       H      1       1.000          0.515                         0.485
     80       C      2       6.000          5.995                         0.005

  Total Charge                                                            0.105
 !-----------------------------------------------------------------------------!
  
 -------------------------------------------------------------------------------
 -                                                                             -
 -                          BANDSTRUCTURE CALCULATION                          -
 -                                                                             -
 -------------------------------------------------------------------------------
  
 Number of occupied molecular orbitals (MOs) = Number of occupied bands      180
 Number of unoccupied (= virtual) MOs = Number of unoccupied bands           468
 Number of Gaussian basis functions for MOs                                  648
 K-point mesh for the density of states (DOS) and the self-energy      1   1   1
  
 -------------------------------------------------------------------------------
 -                                                                             -
 -                                GW CALCULATION                               -
 -                                                                             -
 -------------------------------------------------------------------------------
  
 Input: Number of time/freq. points                                           15
 Input: ω_max for fitting Σ(iω) (eV)                                        10.0
 Input: Filter threshold for sparse tensor operations                    1.0E-08
 Input: Apply Hedin shift                                                      T
 Input: Available memory per MPI process                                  6.0 GB
  
 Number of auxiliary Gaussian basis functions for χ, ε, W                    664
 Cutoff radius for the truncated Coulomb operator in Σ^x:               2645.9 Å
 Cutoff radius for the truncated Coulomb operator in RI metric:            7.0 Å
 Regularization parameter of RI                                          0.0E+00
 Regularization parameter of minimax grids                               0.0E+00
 Lattice sum size for V(k):                                                    3
  
 K-point mesh 1 for χ, ε, W                                            1   1   1
 K-point mesh 2 for χ, ε, W (for k-point extrapolation of W)           1   1   1
 Approximate the k-point extrapolation                                         F
 Group size for tensor operations                                             48
  Decoupling Energy:                                              -0.0000202032
 
 Computed 3-center integrals (µν|P), execution time                        0.3 s
 Percentage of non-zero (µν|P)                                          70.313 %
 Max. distance between µ,ν in non-zero (µν|P)                             14.1 A
 Required memory if storing all 3-center integrals (µν|P)                   1 GB
 
 Number of i and j atoms in M_λνP(τ), N_νλQ(τ):                              163
 Number of inner loop atoms for µ in M_λνP = sum_µ (µν|P) G_µλ                80
 
 SCF direct band gap (eV)                                                   1.91
 Max. SCF eigval diff. (eV)                                               387.87
 E-Range for minimax grid                                                 203.32
 Number of Padé parameters for analytic continuation:                          6
 
 Computed χ(iτ,k=0) for time point            1 / 15, Execution time       1.0 s
 Computed χ(iτ,k=0) for time point            2 / 15, Execution time       1.0 s
 Computed χ(iτ,k=0) for time point            3 / 15, Execution time       1.0 s
 Computed χ(iτ,k=0) for time point            4 / 15, Execution time       1.0 s
 Computed χ(iτ,k=0) for time point            5 / 15, Execution time       1.0 s
 Computed χ(iτ,k=0) for time point            6 / 15, Execution time       1.0 s
 Computed χ(iτ,k=0) for time point            7 / 15, Execution time       1.0 s
 Computed χ(iτ,k=0) for time point            8 / 15, Execution time       1.0 s
 Computed χ(iτ,k=0) for time point            9 / 15, Execution time       1.0 s
 Computed χ(iτ,k=0) for time point           10 / 15, Execution time       1.0 s
 Computed χ(iτ,k=0) for time point           11 / 15, Execution time       1.0 s
 Computed χ(iτ,k=0) for time point           12 / 15, Execution time       0.9 s
 Computed χ(iτ,k=0) for time point           13 / 15, Execution time       0.9 s
 Computed χ(iτ,k=0) for time point           14 / 15, Execution time       0.9 s
 Computed χ(iτ,k=0) for time point           15 / 15, Execution time       0.9 s
 
 Computed W(iτ,k) for k-point batch           1 /  1, Execution time       0.8 s
 
 Computed Σ^x(k=0),                                   Execution time       0.9 s
 
 Computed Σ^c(iτ,k=0) for time point          1 / 15, Execution time       1.4 s
 Computed Σ^c(iτ,k=0) for time point          2 / 15, Execution time       1.4 s
 Computed Σ^c(iτ,k=0) for time point          3 / 15, Execution time       1.4 s
 Computed Σ^c(iτ,k=0) for time point          4 / 15, Execution time       1.4 s
 Computed Σ^c(iτ,k=0) for time point          5 / 15, Execution time       1.4 s
 Computed Σ^c(iτ,k=0) for time point          6 / 15, Execution time       1.4 s
 Computed Σ^c(iτ,k=0) for time point          7 / 15, Execution time       1.4 s
 Computed Σ^c(iτ,k=0) for time point          8 / 15, Execution time       1.5 s
 Computed Σ^c(iτ,k=0) for time point          9 / 15, Execution time       1.4 s
 Computed Σ^c(iτ,k=0) for time point         10 / 15, Execution time       1.4 s
 Computed Σ^c(iτ,k=0) for time point         11 / 15, Execution time       1.3 s
 Computed Σ^c(iτ,k=0) for time point         12 / 15, Execution time       1.3 s
 Computed Σ^c(iτ,k=0) for time point         13 / 15, Execution time       1.3 s
 Computed Σ^c(iτ,k=0) for time point         14 / 15, Execution time       1.2 s
 Computed Σ^c(iτ,k=0) for time point         15 / 15, Execution time       1.2 s
 
 Sparsity of Σ^c(iτ,k=0): Percentage of skipped atom pairs:                0.0 %
 Sparsity of χ(iτ,k=0): Percentage of skipped atom pairs:                  0.0 %

 
 SCF valence band maximum (eV):                                           -4.253
 SCF conduction band minimum (eV):                                        -2.345
 SCF indirect band gap (eV):                                               1.908
 SCF direct band gap (eV):                                                 1.908
 
 G0W0 valence band maximum (eV):                                          -3.153
 G0W0 conduction band minimum (eV):                                        1.818
 G0W0 indirect band gap (eV):                                              4.971
 G0W0 direct band gap (eV):                                                4.971
 
 Hartree-Fock with SCF orbitals valence band maximum (eV):                -3.590
 Hartree-Fock with SCF orbitals conduction band minimum (eV)               2.955
 Hartree-Fock with SCF orbitals indirect band gap (eV):                    6.545
 Hartree-Fock with SCF orbitals direct band gap (eV):                      6.545

 ENERGY| Total FORCE_EVAL ( QS ) energy [hartree]          -2121.469649000457594

 -------------------------------------------------------------------------------
 -                                                                             -
 -                                DBCSR STATISTICS                             -
 -                                                                             -
 -------------------------------------------------------------------------------
 COUNTER                                    TOTAL       BLAS       SMM       ACC
 flops     6 x     6 x    24             14929920     100.0%      0.0%      0.0%     
 flops     9 x     6 x    24             51757056     100.0%      0.0%      0.0%     
 flops     6 x     9 x    24             52088832     100.0%      0.0%      0.0%     
 flops     6 x     6 x    32            159252480     100.0%      0.0%      0.0%     
 flops     9 x     9 x    24            186748416     100.0%      0.0%      0.0%     
 flops     9 x     6 x    32            552075264     100.0%      0.0%      0.0%     
 flops     6 x     9 x    32            555614208     100.0%      0.0%      0.0%     
 flops     9 x     9 x    32           1991983104     100.0%      0.0%      0.0%     
 flops inhomo. stacks                           0       0.0%      0.0%      0.0%
 flops total                         3.564449E+09     100.0%      0.0%      0.0%
 flops max/rank                     94.832640E+06     100.0%      0.0%      0.0%
 matmuls inhomo. stacks                         0       0.0%      0.0%      0.0%
 matmuls total                             870624     100.0%      0.0%      0.0%
 number of processed stacks                196704     100.0%      0.0%      0.0%
 average stack size                                     4.4       0.0       0.0
 marketing flops                     4.837294E+09
 -------------------------------------------------------------------------------
 # multiplications                             32
 max memory usage/rank              19.519672E+09
 # max total images/rank                        3
 # max 3D layers                                1
 # MPI messages exchanged                   30720
 MPI messages size (bytes):
  total size                       650.280960E+06
  min size                           0.000000E+00
  max size                          42.240000E+03
  average size                      21.168000E+03
 MPI breakdown and total messages size (bytes):
             size <=      128                7680                        0
       128 < size <=     8192                   0                        0
      8192 < size <=    32768               11776                183140352
     32768 < size <=   131072               11264                467140608
    131072 < size <=  4194304                   0                        0
   4194304 < size <= 16777216                   0                        0
  16777216 < size                               0                        0
 -------------------------------------------------------------------------------

 *** WARNING in dbcsr_mm.F:301 :: Using a non-square number of MPI ranks ***
 *** might lead to poor performance. Used ranks: 48 Suggested: 49 100    ***

 -------------------------------------------------------------------------------
 -                                                                             -
 -                      DBCSR MESSAGE PASSING PERFORMANCE                      -
 -                                                                             -
 -------------------------------------------------------------------------------
 ROUTINE             CALLS      AVE VOLUME [Bytes]
 MP_Bcast                9                     12.
 MP_Allreduce          195                     11.
 MP_Alltoall          2713                  37623.
 MP_ISend             1536                  10673.
 MP_IRecv             1536                   8934.
 -------------------------------------------------------------------------------

 -------------------------------------------------------------------------------
 -                                                                             -
 -                                DBM STATISTICS                               -
 -                                                                             -
 -------------------------------------------------------------------------------
    M  x    N  x    K                                          COUNT     PERCENT
    ?  x    ?  x    ?                                       63453290      49.67%
   ??  x    ?  x    ?                                       31891780      24.96%
    ?  x    ?  x   ??                                       14973609      11.72%
   ??  x   ??  x   ??                                        9798480       7.67%
    ?  x   ??  x   ??                                        3750502       2.94%
   ??  x    ?  x   ??                                        1941702       1.52%
   ??  x   ??  x    ?                                        1457620       1.14%
    ?  x   ??  x    ?                                         495239       0.39%
 -------------------------------------------------------------------------------

 -------------------------------------------------------------------------------
 -                                                                             -
 -                                GRID STATISTICS                              -
 -                                                                             -
 -------------------------------------------------------------------------------
 LP    KERNEL             BACKEND                              COUNT     PERCENT
 2     collocate ortho    CPU                                  31845      47.13%
 2     integrate ortho    CPU                                  31845      47.13%
 2     collocate general  CPU                                   1848       2.73%
 2     integrate general  CPU                                   1848       2.73%
 0     collocate general  CPU                                    104       0.15%
 0     integrate general  CPU                                     80       0.12%
 -------------------------------------------------------------------------------

 -------------------------------------------------------------------------------
 -                                                                             -
 -                          OFFLOAD MEMPOOL STATISTICS                         -
 -                                                                             -
 -------------------------------------------------------------------------------
 Memory consumption                Number of allocations  Used [MiB]  Size [MiB]
 Device                                                7          55          55
 Host                                                302         449        1001
 -------------------------------------------------------------------------------

 MEMORY| Estimated peak process memory [MiB]                                2157

 -------------------------------------------------------------------------------
 ----                             MULTIGRID INFO                            ----
 -------------------------------------------------------------------------------
 count for grid        1:         111606          cutoff [a.u.]          300.00
 count for grid        2:          44475          cutoff [a.u.]          100.00
 count for grid        3:          70830          cutoff [a.u.]           33.33
 count for grid        4:          51685          cutoff [a.u.]           11.11
 total gridlevel count  :         278596

 -------------------------------------------------------------------------------
 -                                                                             -
 -                         MESSAGE PASSING PERFORMANCE                         -
 -                                                                             -
 -------------------------------------------------------------------------------

 ROUTINE             CALLS      AVE VOLUME [Bytes]
 MP_Group             1394
 MP_Bcast            15997                   2540.
 MP_Allreduce        59445                    881.
 MP_Sync              1792
 MP_Alltoall          1592               10505642.
 MP_SendRecv          3102                 154160.
 MP_ISendRecv         3102                 154160.
 MP_Wait              7800
 MP_comm_split         861
 MP_ISend            33419                 172679.
 MP_IRecv            33541                 174218.
 -------------------------------------------------------------------------------


 -------------------------------------------------------------------------------
 -                                                                             -
 -                           R E F E R E N C E S                               -
 -                                                                             -
 -------------------------------------------------------------------------------
 
 CP2K version 2026.1 (Development Version), the CP2K developers group (2026).
 CP2K is freely available from https://www.cp2k.org/ .
 
 M. Graml, K. Zollner, D. Hernangómez-Pérez, P. E. Faria Junior, J. Wilhelm.
 J. Chem. Theory Comput. 20, 2202-2208 (2024).
 Low-scaling GW algorithm applied to twisted transition-metal dichalcogenide 
 heterobilayers.
 https://doi.org/10.1021/acs.jctc.3c01230

 T. D. Kuehne, M. Iannuzzi, M. Del Ben, V. V. Rybkin, P. Seewald, F. Stein, T. 
 Laino, R. Z. Khaliullin, O. Schuett, F. Schiffmann, D. Golze, J. Wilhelm, S. 
 Chulkov, M. H. Bani-Hashemian, V. Weber, U. Borstnik, M. Taillefumier, A. S. 
 Jakobovits, A. Lazzaro, H. Pabst, T. Mueller, R. Schade, M. Guidon, S. 
 Andermatt, N. Holmberg, G. K. Schenter, A. Hehn, A. Bussy, F. Belleflamme, G. 
 Tabacchi, A. Gloess, M. Lass, I. Bethune, C. J. Mundy, C. Plessl, M. Watkins, 
 J. VandeVondele, M. Krack, J. Hutter.
 J. Chem. Phys. 152, 194103 (2020).
 CP2K: An electronic structure and molecular dynamics software package - 
 Quickstep: Efficient and accurate electronic structure calculations.
 https://doi.org/10.1063/5.0007045

 O. Schuett, P. Messmer, J. Hutter, J. VandeVondele.
 Electronic Structure Calculations on Graphics Processing Units, 173-190 (2016).
 GPU-Accelerated Sparse Matrix-Matrix Multiplication for Linear Scaling Density 
 Functional Theory.
 https://doi.org/10.1002/9781118670712.ch8

 A. Heinecke, G. Henry, M. Hutchinson, H. Pabst.
 Proceedings of Intl. Supercomputing Conference, 981-991 (2016).
 LIBXSMM: Accelerating Small Matrix Multiplications by Runtime Code Generation.
 https://doi.org/10.1109/SC.2016.83

 J. Hutter, M. Iannuzzi, F. Schiffmann, J. VandeVondele.
 WIREs Comput Mol Sci. 4, 15-25 (2014).
 CP2K: atomistic simulations of condensed matter systems.
 https://doi.org/10.1002/wcms.1159

 U. Borstnik, J. VandeVondele, V. Weber, J. Hutter.
 Parallel Comput. 40, 47-58 (2014).
 Sparse matrix multiplication: The distributed block-compressed sparse row 
 library.
 https://doi.org/10.1016/j.parco.2014.03.012

 A. Marek, V. Blum, R. Johanni, V. Havu, B. Lang, T. Auckenthaler, A. Heinecke, 
 H. Bungartz, H. Lederer.
 J. Phys. Condens. Matter 26, 213201 (2014).
 The ELPA library: scalable parallel eigenvalue solutions for electronic 
 structure theory and computational science.
 https://doi.org/10.1088/0953-8984/26/21/213201

 J. VandeVondele, J. Hutter.
 J. Chem. Phys. 127, 114105 (2007).
 Gaussian basis sets for accurate calculations on molecular systems in gas and 
 condensed phases.
 https://doi.org/10.1063/1.2770708

 M. Frigo, S. G. Johnson.
 Proc. IEEE 93, 216-231 (2005).
 The design and implementation of FFTW3.
 https://doi.org/10.1109/JPROC.2004.840301

 M. Krack, M. Parrinello.
 Phys. Chem. Chem. Phys. 2, 2105-2112 (2000).
 All-electron ab-initio molecular dynamics.
 https://doi.org/10.1039/b001167n

 G. Lippert, J. Hutter, M. Parrinello.
 Theor. Chem. Acc. 103, 124-140 (1999).
 The Gaussian and augmented-plane-wave density functional method for ab initio 
 molecular dynamics simulations.
 https://doi.org/10.1007/s002140050523

 J. P. Perdew, K. Burke, M. Ernzerhof.
 Phys. Rev. Lett. 77, 3865-3868 (1996).
 Generalized gradient approximation made simple.
 https://doi.org/10.1103/PhysRevLett.77.3865

 P. E. Blöchl.
 J. Chem. Phys. 103, 7422-7428 (1995).
 Electrostatic decoupling of periodic images of plane‐wave‐expanded 
 densities and derived atomic point charges.
 https://doi.org/10.1063/1.470314


 -------------------------------------------------------------------------------
 -                                                                             -
 -                                T I M I N G                                  -
 -                                                                             -
 -------------------------------------------------------------------------------
 SUBROUTINE                       CALLS  ASD         SELF TIME        TOTAL TIME
                                MAXIMUM       AVERAGE  MAXIMUM  AVERAGE  MAXIMUM
 CP2K                                 1  1.0    0.022    0.037   52.699   52.703
 qs_energies                          1  2.0    0.003    0.004   52.529   52.536
 qs_energies_properties               1  3.0    0.001    0.001   37.620   37.626
 post_scf_bandstructure               1  4.0    0.001    0.001   37.619   37.625
 gw                                   1  5.0    0.001    0.001   37.528   37.531
 gw_calc_large_cell_Gamma             1  6.0    0.000    0.000   37.003   37.006
 dbt_total                          354  9.0    0.003    0.003   27.762   27.763
 dbt_contract                       123  9.9    0.006    0.007   24.738   24.739
 dbt_tas_multiply                   246 12.4    0.000    0.001   22.702   22.703
 dbt_tas_total                      246 13.4    0.023    0.029   22.700   22.701
 get_Sigma_c                          1  7.0    0.000    0.004   20.573   20.574
 dbt_tas_dbm                        246 14.4    0.001    0.001   16.554   16.555
 dbm_multiply                       246 16.4   14.469   16.026   14.469   16.026
 contract_to_Sigma                   31  8.0    0.001    0.001   15.275   15.276
 get_mat_chi_Gamma_tau                1  7.0    0.000    0.004   14.483   14.485
 scf_env_do_scf                       1  3.0    0.000    0.001   13.542   13.543
 scf_env_do_scf_inner_loop           32  4.0    0.002    0.003   13.542   13.543
 qs_ks_build_kohn_sham_matrix        33  7.0    0.007    0.008    8.671    8.674
 compute_3c_integrals                77  8.6    0.001    0.001    8.630    8.630
 qs_ks_update_qs_env                 32  5.0    0.000    0.000    8.549    8.551
 rebuild_ks_matrix                   32  6.0    0.000    0.000    8.545    8.548
 build_3c_integrals                  87  9.4    5.083    5.983    6.846    7.915
 mp_sync                           1792 12.2    4.013    7.506    4.013    7.506
 fft_wrap_pw1pw2                    619 10.1    0.008    0.009    5.999    6.169
 G_times_3c                          30  8.0    0.001    0.001    5.981    5.981
 fft_wrap_pw1pw2_300                421 11.4    0.379    0.436    5.690    5.905
 compute_3c_and_contract_W           16  8.1    0.000    0.000    5.884    5.884
 dbt_tas_mm_2                        92 15.2    0.000    0.000    5.503    5.503
 fft3d_ps                           619 12.1    2.277    2.515    4.545    4.716
 dbt_tas_mm_3T                       62 15.5    0.000    0.000    4.018    4.536
 qs_vxc_create                       33  8.0    0.001    0.001    4.368    4.439
 xc_vxc_pw_create                    32  9.0    0.056    0.070    4.367    4.439
 dbt_tas_mm_1N                       60 15.5    0.000    0.000    3.864    4.379
 xc_pw_derive                       192 11.0    0.001    0.001    3.058    3.189
 qs_rho_update_rho_low               33  5.0    0.000    0.001    2.998    2.998
 dbt_copy                           231 10.1    0.003    0.004    2.621    2.938
 calculate_rho_elec                  33  6.0    0.038    0.041    2.901    2.901
 convert_to_new_pgrid               738 14.4    0.091    0.164    2.228    2.368
 dbm_reserve_blocks                1379 15.5    1.996    2.326    1.996    2.326
 xc_rho_set_and_dset_create          32 10.0    0.056    0.075    2.220    2.316
 dbt_tas_reserve_blocks_index      1133 14.5    0.031    0.035    1.972    2.301
 dbm_redistribute                   186 14.7    1.947    2.153    1.947    2.153
 xc_pw_divergence                    32 10.0    0.001    0.001    2.029    2.138
 mp_alltoall_z22v                   619 14.1    1.772    2.095    1.772    2.095
 dbt_tas_mm_3N                       32 15.6    0.000    0.000    1.753    2.090
 dbt_crop                           246 10.9    0.982    1.079    1.742    1.967
 dbt_tas_estimate_result_nze        123 12.9    0.378    0.423    1.904    1.905
 density_rs2pw                       33  7.0    0.001    0.002    1.684    1.861
 dbt_reshape                        139 10.9    0.826    0.941    1.655    1.839
 dbt_reserve_blocks_index           564 12.4    0.015    0.017    1.575    1.838
 dbm_add                            246 14.4    1.557    1.708    1.557    1.708
 sum_up_and_integrate                33  8.0    0.000    0.000    1.526    1.530
 integrate_v_rspace                  33  9.0    0.001    0.001    1.509    1.513
 dbt_reserve_blocks_index_array     400 11.9    0.001    0.001    1.140    1.391
 potential_pw2rs                     33 10.0    0.003    0.003    1.295    1.300
 yz_to_x                            295 12.9    0.225    0.260    1.058    1.285
 x_to_yz                            324 13.3    0.259    0.341    1.198    1.267
 grid_collocate_task_list            33  7.0    1.121    1.240    1.121    1.240
 gspace_mixing                       31  5.0    0.036    0.040    1.237    1.237
 qs_energies_init_hamiltonians        1  3.0    0.004    0.004    1.158    1.158
 transfer_rs2pw                     167  8.4    0.002    0.002    0.905    1.103
 build_core_hamiltonian_matrix        1  4.0    0.001    0.001    1.098    1.098
 overlap_condnum                      1  5.0    0.001    0.002    1.079    1.080
 arnoldi_conjugate_gradient           9  6.0    0.024    0.042    1.047    1.047
 mp_waitany                        2412 11.5    0.796    1.010    0.796    1.010
 transfer_pw2rs                     166 10.6    0.001    0.002    0.983    1.000
 prepare_gapw_den                    33  8.0    0.000    0.000    0.923    0.960
 put_rho0_on_grid                    33  9.0    0.048    0.056    0.894    0.931
 get_Sigma_x                          1  7.0    0.000    0.000    0.930    0.930
 compute_Sigma_x                      1  8.0    0.000    0.000    0.930    0.930
 dbt_tas_copy                        77 11.6    0.410    0.479    0.764    0.884
 get_W_MIC                            1  7.0    0.000    0.000    0.841    0.841
 compute_W_MIC                        1  8.0    0.000    0.000    0.841    0.841
 broyden_mixing                      31  6.0    0.753    0.793    0.780    0.814
 transfer_rs2pw_300                  68  9.9    0.251    0.277    0.618    0.809
 abc_contract_xsmm              2212872 10.6    0.647    0.779    0.647    0.779
 mp_sum_d                         17937  6.9    0.536    0.765    0.536    0.765
 compute_fm_W_MIC_freq_j             15  9.0    0.001    0.001    0.748    0.749
 mp_waitall_2                      1352 16.3    0.622    0.710    0.622    0.710
 dbcsr_sym_matrix_vector_mult     11295  7.0    0.055    0.063    0.671    0.691
 qs_ks_ddapc                         33  8.0    0.001    0.001    0.646    0.690
 transfer_pw2rs_300                  67 11.0    0.280    0.318    0.645    0.682
 dbm_copy                           368 15.5    0.624    0.679    0.624    0.679
 xc_functional_eval                 160 10.3    0.001    0.001    0.609    0.675
 pbe_lda_eval                       160 11.3    0.608    0.674    0.608    0.674
 alloc_block_3c                      87 10.4    0.170    0.197    0.604    0.633
 qs_scf_new_mos                      32  5.0    0.000    0.000    0.612    0.615
 cp_cfm_heevd                        17 10.6    0.000    0.000    0.609    0.610
 cp_cfm_heevd_base                   17 11.6    0.609    0.610    0.609    0.610
 dbt_communicate_buffer             139 11.9    0.005    0.006    0.528    0.606
 mp_max_i                           708  4.9    0.282    0.594    0.282    0.594
 cp_cfm_power                        15 10.0    0.000    0.000    0.566    0.567
 mp_sum_l                          1644 13.7    0.325    0.552    0.325    0.552
 eigensolver_symm                    32  6.0    0.003    0.003    0.531    0.532
 create_and_init_bs_env_for_gw        1  6.0    0.001    0.001    0.524    0.527
 cp_fm_diag_elpa                     38  7.2    0.000    0.000    0.512    0.513
 cp_fm_redistribute_end              38  8.2    0.252    0.494    0.255    0.496
 pw_derive                          291 11.3    0.443    0.495    0.443    0.495
 integrate_vhg0_rspace               33  8.0    0.018    0.024    0.489    0.494
 dbt_tas_reserve_blocks_templat     323 13.6    0.007    0.008    0.410    0.492
 pw_gather_p                        295 11.9    0.428    0.492    0.428    0.492
 pw_poisson_solve                    33  8.0    0.000    0.001    0.471    0.479
 cp_fm_diag_elpa_base                38  8.2    0.232    0.467    0.237    0.477
 pw_copy                            589 10.5    0.428    0.449    0.428    0.449
 pw_scatter_p                       324 12.3    0.340    0.372    0.340    0.372
 dbt_tas_replicate                  246 14.4    0.078    0.102    0.310    0.333
 fft_wrap_pw1pw2_100                 66 10.5    0.010    0.012    0.238    0.329
 check_sparsity_3c                    1  7.0    0.001    0.001    0.326    0.326
 build_3c_integrals_put_dbcsr    195597 10.6    0.271    0.304    0.271    0.304
 dbcsr_add_d                      17137  7.1    0.005    0.005    0.055    0.301
 pw_poisson_set                      34  8.9    0.001    0.001    0.288    0.296
 dbcsr_add_anytype                17137  8.1    0.011    0.076    0.050    0.296
 parallel_gemm_cfm                  144 10.4    0.000    0.000    0.265    0.268
 parallel_gemm_cfm_cosma            144 11.4    0.265    0.268    0.265    0.268
 -------------------------------------------------------------------------------

 The number of warnings for this run is : 2
 
 -------------------------------------------------------------------------------
  **** **** ******  **  PROGRAM ENDED AT                 2026-02-06 11:28:58.006
 ***** ** ***  *** **   PROGRAM RAN ON                                    cn1505
 **    ****   ******    PROGRAM RAN BY                                  eprop2d2
 ***** **    ** ** **   PROGRAM PROCESS ID                                783602
  **** **  *******  **  PROGRAM STOPPED IN /scratch/hpc-prf-metdyn/eprop2d2_Max/
                                           02_lsGW_Nanographenes_Farming_runs/16
                                           _SZV-mini_after_bugfix_dist/00103_GW_
                                           nanographene_4_stripes__BASIS_SET ORB
                                           _aug-SZV-MOLOPT-ae-mini_BASIS_SET RI_
                                           AUX_RI_aug-SZV-MOLOPT-ae-mini_tier1_E
                                           PS_FILTER_1e-8_NUM_TIME_FREQ_POINTS_1
                                           5_POISSON_SOLVER_MULTIPOLE_BASIS_SET_
                                           FILE_NAME_BASIS_augMOLOPT_SR_as_mini
