SIRIUS 7.7.0, git hash: https://api.github.com/repos/electronic-structure/SIRIUS/git/ref/tags/v7.7.0
 DBCSR| CPU Multiplication driver                                           BLAS (U)
 DBCSR| Multrec recursion limit                                              512 (U)
 DBCSR| Multiplication stack size                                           1000 (D)
 DBCSR| Maximum elements for images                                    UNLIMITED (U)
 DBCSR| Multiplicative factor virtual images                                   1 (U)
 DBCSR| Use multiplication densification                                       T (D)
 DBCSR| Multiplication size stacks                                             3 (U)
 DBCSR| Use memory pool for CPU allocation                                     F (U)
 DBCSR| Number of 3D layers                                               SINGLE (U)
 DBCSR| Use MPI memory allocation                                              F (U)
 DBCSR| Use RMA algorithm                                                      F (U)
 DBCSR| Use Communication thread                                               T (U)
 DBCSR| Communication thread load                                             75 (D)
 DBCSR| MPI: My process id                                                     0
 DBCSR| MPI: Number of processes                                              48
 DBCSR| OMP: Current number of threads                                         4
 DBCSR| OMP: Max number of threads                                             4
 DBCSR| Split modifier for TAS multiplication algorithm                  1.0E+00 (U)


  **** **** ******  **  PROGRAM STARTED AT               2026-01-23 12:29:50.594
 ***** ** ***  *** **   PROGRAM STARTED ON                               lcn1311
 **    ****   ******    PROGRAM STARTED BY                              eprop2d2
 ***** **    ** ** **   PROGRAM PROCESS ID                               1031545
  **** **  *******  **  PROGRAM STARTED IN /scratch/hpc-prf-metdyn/eprop2d2_Max/
                                           02_lsGW_Nanographenes_Farming_runs/12
                                           _SZV-mini_with_new_bounds/00101_GW_na
                                           nographene_1_stripes__BASIS_SET ORB_a
                                           ug-SZV-MOLOPT-ae-mini_BASIS_SET RI_AU
                                           X_RI_aug-SZV-MOLOPT-ae-mini_tier1_EPS
                                           _FILTER_1e-8_NUM_TIME_FREQ_POINTS_15_
                                           POISSON_SOLVER_MULTIPOLE_BASIS_SET_FI
                                           LE_NAME_BASIS_augMOLOPT_SR_as_mini_AD
                                           DED_MOS_100

 CP2K| version string:                 CP2K version 2025.2 (Development Version)
 CP2K| source code revision number:                                  git:3ae2ba4
 CP2K| cp2kflags: omp libint fftw3 libxc libgrpp elpa parallel scalapack mpi_f08
 CP2K|             cosma xsmm plumed2 spglib sirius libvori libbqb libvdwxc hdf5
 CP2K| is freely available from                            https://www.cp2k.org/
 CP2K| Program compiled at                       Thu Jan 22 03:37:30 PM CET 2026
 CP2K| Program compiled on                                                login1
 CP2K| Program compiled for                                       local_otus_dev
 CP2K| Data directory path    /opt/software/pc2/EB-SW/software/CP2K/2025.2-foss-
 CP2K| Input file name                                                    GW.inp

 GLOBAL| Force Environment number                                              1
 GLOBAL| Basis set file name                          BASIS_augMOLOPT_SR_as_mini
 GLOBAL| Potential file name                                      ALL_POTENTIALS
 GLOBAL| MM Potential file name                                     MM_POTENTIAL
 GLOBAL| Coordinate file name                                 Nanographene_1.xyz
 GLOBAL| Method name                                                        CP2K
 GLOBAL| Project name                                                    MOLNAME
 GLOBAL| Run type                                                         ENERGY
 GLOBAL| FFT library                                                       FFTW3
 GLOBAL| Diagonalization library                                            ELPA
 GLOBAL| Cholesky decomposition library                                ScaLAPACK
 GLOBAL| DGEMM library                                                      BLAS
 GLOBAL| Minimum number of eigenvectors for ELPA usage                        16
 GLOBAL| Orthonormality check for eigenvectors                          DISABLED
 GLOBAL| Matrix multiplication library                                     COSMA
 GLOBAL| All-to-all communication in single precision                          F
 GLOBAL| FFTs using library dependent lengths                                  T
 GLOBAL| Grid backend                                                       AUTO
 GLOBAL| Global print level                                               MEDIUM
 GLOBAL| MPI I/O enabled                                                       T
 GLOBAL| Total number of message passing processes                            48
 GLOBAL| Number of distributed systems (nodes)                                 1
 GLOBAL| Number of threads for this process                                    4
 GLOBAL| This output is from process                                           0
 GLOBAL| OpenMP stack size per thread (OMP_STACKSIZE)                    default
 GLOBAL| CPU model name                          AMD EPYC 9655 96-Core Processor
 GLOBAL| CPUID                                                              1003

 MEMORY| system memory details [Kb]
 MEMORY|                        rank 0           min           max       average
 MEMORY| MemTotal           1583759316    1583759316    1583759316    1583759316
 MEMORY| MemFree            1543233784    1543233784    1543233784    1543233784
 MEMORY| Buffers                 14560         14560         14560         14560
 MEMORY| Cached                5249508       5249508       5249508       5249508
 MEMORY| Slab                  3072056       3072056       3072056       3072056
 MEMORY| SReclaimable          1349640       1349640       1349640       1349640
 MEMORY| MemLikelyFree      1549847492    1549847492    1549847492    1549847492


 *** Fundamental physical constants (SI units) ***

 *** Literature: B. J. Mohr and B. N. Taylor,
 ***             CODATA recommended values of the fundamental physical
 ***             constants: 2006, Web Version 5.1
 ***             http://physics.nist.gov/constants

 Speed of light in vacuum [m/s]                             2.99792458000000E+08
 Magnetic constant or permeability of vacuum [N/A**2]       1.25663706143592E-06
 Electric constant or permittivity of vacuum [F/m]          8.85418781762039E-12
 Planck constant (h) [J*s]                                  6.62606896000000E-34
 Planck constant (h-bar) [J*s]                              1.05457162825177E-34
 Elementary charge [C]                                      1.60217648700000E-19
 Electron mass [kg]                                         9.10938215000000E-31
 Electron g factor [ ]                                     -2.00231930436220E+00
 Proton mass [kg]                                           1.67262163700000E-27
 Fine-structure constant                                    7.29735253760000E-03
 Rydberg constant [1/m]                                     1.09737315685270E+07
 Avogadro constant [1/mol]                                  6.02214179000000E+23
 Boltzmann constant [J/K]                                   1.38065040000000E-23
 Atomic mass unit [kg]                                      1.66053878200000E-27
 Bohr radius [m]                                            5.29177208590000E-11

 *** Conversion factors ***

 [u] -> [a.u.]                                              1.82288848426455E+03
 [Angstrom] -> [Bohr] = [a.u.]                              1.88972613288564E+00
 [a.u.] = [Bohr] -> [Angstrom]                              5.29177208590000E-01
 [a.u.] -> [s]                                              2.41888432650478E-17
 [a.u.] -> [fs]                                             2.41888432650478E-02
 [a.u.] -> [J]                                              4.35974393937059E-18
 [a.u.] -> [N]                                              8.23872205491840E-08
 [a.u.] -> [K]                                              3.15774647902944E+05
 [a.u.] -> [kJ/mol]                                         2.62549961709828E+03
 [a.u.] -> [kcal/mol]                                       6.27509468713739E+02
 [a.u.] -> [Pa]                                             2.94210107994716E+13
 [a.u.] -> [bar]                                            2.94210107994716E+08
 [a.u.] -> [atm]                                            2.90362800883016E+08
 [a.u.] -> [eV]                                             2.72113838565563E+01
 [a.u.] -> [Hz]                                             6.57968392072181E+15
 [a.u.] -> [1/cm] (wave numbers)                            2.19474631370540E+05
 [a.u./Bohr**2] -> [1/cm]                                   5.14048714338585E+03
 

 CELL_TOP| Volume [angstrom^3]:                                      4883.987745
 CELL_TOP| Vector a [angstrom    21.190     0.000     0.000   |a| =    21.190000
 CELL_TOP| Vector b [angstrom     0.000    17.010     0.000   |b| =    17.010000
 CELL_TOP| Vector c [angstrom     0.000     0.000    13.550   |c| =    13.550000
 CELL_TOP| Angle (b,c), alpha [degree]:                                90.000000
 CELL_TOP| Angle (a,c), beta  [degree]:                                90.000000
 CELL_TOP| Angle (a,b), gamma [degree]:                                90.000000
 CELL_TOP| Numerically orthorhombic:                                         YES
 CELL_TOP| Periodicity                                                      NONE

 GENERATE|  Preliminary Number of Bonds generated:                             0
 GENERATE|  Achieved consistency in connectivity generation.

 CELL| Volume [angstrom^3]:                                          4883.987745
 CELL| Vector a [angstrom]:      21.190     0.000     0.000   |a| =    21.190000
 CELL| Vector b [angstrom]:       0.000    17.010     0.000   |b| =    17.010000
 CELL| Vector c [angstrom]:       0.000     0.000    13.550   |c| =    13.550000
 CELL| Angle (b,c), alpha [degree]:                                    90.000000
 CELL| Angle (a,c), beta  [degree]:                                    90.000000
 CELL| Angle (a,b), gamma [degree]:                                    90.000000
 CELL| Numerically orthorhombic:                                             YES
 CELL| Periodicity                                                          NONE

 CELL_REF| Volume [angstrom^3]:                                      4883.987745
 CELL_REF| Vector a [angstrom    21.190     0.000     0.000   |a| =    21.190000
 CELL_REF| Vector b [angstrom     0.000    17.010     0.000   |b| =    17.010000
 CELL_REF| Vector c [angstrom     0.000     0.000    13.550   |c| =    13.550000
 CELL_REF| Angle (b,c), alpha [degree]:                                90.000000
 CELL_REF| Angle (a,c), beta  [degree]:                                90.000000
 CELL_REF| Angle (a,b), gamma [degree]:                                90.000000
 CELL_REF| Numerically orthorhombic:                                         YES
 CELL_REF| Periodicity                                                      NONE

 *******************************************************************************
 *******************************************************************************
 **                                                                           **
 **     #####                         ##              ##                      **
 **    ##   ##            ##          ##              ##                      **
 **   ##     ##                       ##            ######                    **
 **   ##     ##  ##   ##  ##   #####  ##  ##   ####   ##    #####    #####    **
 **   ##     ##  ##   ##  ##  ##      ## ##   ##      ##   ##   ##  ##   ##   **
 **   ##  ## ##  ##   ##  ##  ##      ####     ###    ##   ######   ######    **
 **    ##  ###   ##   ##  ##  ##      ## ##      ##   ##   ##       ##        **
 **     #######   #####   ##   #####  ##  ##  ####    ##    #####   ##        **
 **           ##                                                    ##        **
 **                                                                           **
 **                                                ... make the atoms dance   **
 **                                                                           **
 **            Copyright (C) by CP2K developers group (2000-2025)             **
 **                      J. Chem. Phys. 152, 194103 (2020)                    **
 **                                                                           **
 *******************************************************************************

 DFT| Spin restricted Kohn-Sham (RKS) calculation                            RKS
 DFT| Multiplicity                                                             1
 DFT| Number of spin states                                                    1
 DFT| Charge                                                                   0
 DFT| Self-interaction correction (SIC)                                       NO
 DFT| Cutoffs: density                                              1.000000E-10
 DFT|          gradient                                             1.000000E-10
 DFT|          tau                                                  1.000000E-10
 DFT|          cutoff_smoothing_range                               0.000000E+00
 DFT| XC density smoothing                                                  NONE
 DFT| XC derivatives                                                          PW

 FUNCTIONAL| PBE:
 FUNCTIONAL| J.P.Perdew, K.Burke, M.Ernzerhof, Phys. Rev. Letter, vol. 77, n 18,
 FUNCTIONAL|  pp. 3865-3868, (1996) {spin unpolarized}                          


 QS| Method:                                                                GAPW
 QS| Density plane wave grid type                        NON-SPHERICAL FULLSPACE
 QS| Number of grid levels:                                                    4
 QS| Density cutoff [a.u.]:                                                300.0
 QS| Multi grid cutoff [a.u.]: 1) grid level                               300.0
 QS|                           2) grid level                               100.0
 QS|                           3) grid level                                33.3
 QS|                           4) grid level                                11.1
 QS| Grid level progression factor:                                          3.0
 QS| Relative density cutoff [a.u.]:                                        30.0
 QS| Interaction thresholds: eps_pgf_orb:                                3.2E-08
 QS|                         eps_filter_matrix:                          0.0E+00
 QS|                         eps_core_charge:                            1.0E-17
 QS|                         eps_rho_gspace:                             1.0E-15
 QS|                         eps_rho_rspace:                             1.0E-15
 QS|                         eps_gvg_rspace:                             3.2E-08
 QS|                         eps_ppl:                                    1.0E-02
 QS|                         eps_ppnl:                                   3.2E-10
 QS| GAPW|      One center basis from orbital basis primitives
 QS| GAPW|                   eps_fit:                                    1.0E-04
 QS| GAPW|                   eps_iso:                                    1.0E-12
 QS| GAPW|                   eps_svd:                                    1.0E-08
 QS| GAPW|                   eps_cpc:                                    1.0E-15
 QS| GAPW|   atom-r-grid: quadrature:                                     GC_LOG
 QS| GAPW|      atom-s-grid:  max l :                                          2
 QS| GAPW|      max_l_rho0 :                                                   2
 QS| GAPW|      At least one kind is NOT PAW, i.e. it has only soft AO 
 QS| GAPW|      The NOT PAW atoms are treated fully GPW


 ATOMIC KIND INFORMATION

  1. Atomic kind: H                                     Number of atoms:      12

     Orbital Basis Set                                    aug-SZV-MOLOPT-ae-mini

       Number of orbital shell sets:                                           1
       Number of orbital shells:                                               4
       Number of primitive Cartesian functions:                                4
       Number of Cartesian basis functions:                                    6
       Number of spherical basis functions:                                    6
       Norm type:                                                              2

       Normalised Cartesian orbitals:

                        Set   Shell   Orbital            Exponent    Coefficient

                          1       1    2s                0.065428       0.000000
                                                         0.168855       0.083474
                                                         0.623914       0.267839
                                                         3.425251       0.276934

                          1       2    3s                0.065428      -0.066952
                                                         0.168855       0.261968
                                                         0.623914       0.081548
                                                         3.425251      -0.022414

                          1       3    4s                0.065428       0.165615
                                                         0.168855      -0.226449
                                                         0.623914      -0.005802
                                                         3.425251       0.005451

                          1       4    3px               0.065428       0.053063
                                                         0.168855      -0.030502
                                                         0.623914       0.062721
                                                         3.425251       0.019012
                          1       4    3py               0.065428       0.053063
                                                         0.168855      -0.030502
                                                         0.623914       0.062721
                                                         3.425251       0.019012
                          1       4    3pz               0.065428       0.053063
                                                         0.168855      -0.030502
                                                         0.623914       0.062721
                                                         3.425251       0.019012

     RI Auxiliary Basis Set                      RI_aug-SZV-MOLOPT-ae-mini_tier1

       Number of orbital shell sets:                                           2
       Number of orbital shells:                                               2
       Number of primitive Cartesian functions:                                2
       Number of Cartesian basis functions:                                    2
       Number of spherical basis functions:                                    2
       Norm type:                                                              2

       Normalised Cartesian orbitals:

                        Set   Shell   Orbital            Exponent    Coefficient

                          1       1    1s                0.636484       0.507868

                          2       1    2s                2.457925       1.399061

       Atomic covalent radius [Angstrom]:                                  0.320

       Atomic van der Waals radius [Angstrom]:                             1.090

     AE Potential information for                                            ALL

       Description:                                       All-electron potential
                                          Krack, Parrinello, PCCP 2, 2105 (2000)

       Gaussian exponent of the core charge distribution:              12.500000
       Electronic configuration (s p d ...):                           1   0   0

  2. Atomic kind: C                                     Number of atoms:      14

     Orbital Basis Set                                    aug-SZV-MOLOPT-ae-mini

       Number of orbital shell sets:                                           2
       Number of orbital shells:                                               5
       Number of primitive Cartesian functions:                                7
       Number of Cartesian basis functions:                                    9
       Number of spherical basis functions:                                    9
       Norm type:                                                              2

       Normalised Cartesian orbitals:

                        Set   Shell   Orbital            Exponent    Coefficient

                          1       1    1s               71.616837       2.707801
                                                        13.045096       2.618883
                                                         3.530512       0.816191

                          2       1    2s                0.114558       0.000000
                                                         0.222289       0.161536
                                                         0.683483       0.214036
                                                         2.941249      -0.160017

                          2       2    3s                0.114558       0.000272
                                                         0.222289       0.256636
                                                         0.683483      -0.079244
                                                         2.941249       0.000032

                          2       3    3px               0.114558       0.000000
                                                         0.222289       0.085276
                                                         0.683483       0.538304
                                                         2.941249       0.856044
                          2       3    3py               0.114558       0.000000
                                                         0.222289       0.085276
                                                         0.683483       0.538304
                                                         2.941249       0.856044
                          2       3    3pz               0.114558       0.000000
                                                         0.222289       0.085276
                                                         0.683483       0.538304
                                                         2.941249       0.856044

                          2       4    4px               0.114558      -0.035043
                                                         0.222289      -0.159067
                                                         0.683483       0.106927
                                                         2.941249      -0.036832
                          2       4    4py               0.114558      -0.035043
                                                         0.222289      -0.159067
                                                         0.683483       0.106927
                                                         2.941249      -0.036832
                          2       4    4pz               0.114558      -0.035043
                                                         0.222289      -0.159067
                                                         0.683483       0.106927
                                                         2.941249      -0.036832

     RI Auxiliary Basis Set                      RI_aug-SZV-MOLOPT-ae-mini_tier1

       Number of orbital shell sets:                                           7
       Number of orbital shells:                                               7
       Number of primitive Cartesian functions:                                7
       Number of Cartesian basis functions:                                   11
       Number of spherical basis functions:                                   11
       Norm type:                                                              2

       Normalised Cartesian orbitals:

                        Set   Shell   Orbital            Exponent    Coefficient

                          1       1    1s                0.916541       0.667612

                          2       1    2s                1.427899       0.930964

                          3       1    3s                2.204249       1.289305

                          4       1    4s                3.433303       1.797605

                          5       1    5s                5.397142       2.523673

                          6       1    6px               0.514441       0.621025
                          6       1    6py               0.514441       0.621025
                          6       1    6pz               0.514441       0.621025

                          7       1    7px               1.555827       2.476805
                          7       1    7py               1.555827       2.476805
                          7       1    7pz               1.555827       2.476805

       Atomic covalent radius [Angstrom]:                                  0.770

       Atomic van der Waals radius [Angstrom]:                             1.700

     The atoms of this atomic kind are PAW atoms (GAPW):
       Hard Gaussian function radius:                                      1.512
       Rho0 radius:                                                        1.512
       Maximum GTO radius used for PAW projector construction:            24.566

     GAPW Soft Basis Set                             aug-SZV-MOLOPT-ae-mini_soft

       Number of orbital shell sets:                                           2
       Number of orbital shells:                                               5
       Number of primitive Cartesian functions:                                5
       Number of Cartesian basis functions:                                    9
       Number of spherical basis functions:                                    9
       Norm type:                                                              2

       Normalised Cartesian orbitals:

                        Set   Shell   Orbital            Exponent    Coefficient

                          1       1    1s                3.530512       0.816191

                          2       1    2s                0.114558       0.000000
                                                         0.222289       0.161536
                                                         0.683483       0.214036
                                                         2.941249      -0.160017

                          2       2    3s                0.114558       0.000272
                                                         0.222289       0.256636
                                                         0.683483      -0.079244
                                                         2.941249       0.000032

                          2       3    3px               0.114558       0.000000
                                                         0.222289       0.085276
                                                         0.683483       0.538304
                                                         2.941249       0.856044
                          2       3    3py               0.114558       0.000000
                                                         0.222289       0.085276
                                                         0.683483       0.538304
                                                         2.941249       0.856044
                          2       3    3pz               0.114558       0.000000
                                                         0.222289       0.085276
                                                         0.683483       0.538304
                                                         2.941249       0.856044

                          2       4    4px               0.114558      -0.035043
                                                         0.222289      -0.159067
                                                         0.683483       0.106927
                                                         2.941249      -0.036832
                          2       4    4py               0.114558      -0.035043
                                                         0.222289      -0.159067
                                                         0.683483       0.106927
                                                         2.941249      -0.036832
                          2       4    4pz               0.114558      -0.035043
                                                         0.222289      -0.159067
                                                         0.683483       0.106927
                                                         2.941249      -0.036832

     AE Potential information for                                            ALL

       Description:                                       All-electron potential
                                          Krack, Parrinello, PCCP 2, 2105 (2000)

       Gaussian exponent of the core charge distribution:               4.109048
       Electronic configuration (s p d ...):                           4   2   0


 MOLECULE KIND INFORMATION


 All atoms are their own molecule, skipping detailed information


 TOTAL NUMBERS AND MAXIMUM NUMBERS

  Total number of            - Atomic kinds:                                   2
                             - Atoms:                                         26
                             - Shell sets:                                    40
                             - Shells:                                       118
                             - Primitive Cartesian functions:                146
                             - Cartesian basis functions:                    198
                             - Spherical basis functions:                    198

  Maximum angular momentum of the orbital basis functions:                     1


 MODULE QUICKSTEP: ATOMIC COORDINATES IN ANGSTROM

   Atom Kind Element         X             Y             Z       Z(eff)     Mass
      1    1 H     1     13.035671      5.998103      6.775000   1.0000   1.0079
      2    1 H     1      8.154329      5.998103      6.775000   1.0000   1.0079
      3    1 H     1     10.595000      6.309348      7.548044   1.0000   1.0079
      4    1 H     1     10.595000      6.309348      6.001956   1.0000   1.0079
      5    2 C     6     10.595000      7.082393      6.775000   6.0000  12.0107
      6    2 C     6      8.154329      7.091353      6.775000   6.0000  12.0107
      7    2 C     6     13.035671      7.091353      6.775000   6.0000  12.0107
      8    1 H     1      5.998191      7.306055      6.775000   1.0000   1.0079
      9    1 H     1     15.191809      7.306055      6.775000   1.0000   1.0079
     10    2 C     6      9.371477      7.795577      6.775000   6.0000  12.0107
     11    2 C     6     11.818523      7.795577      6.775000   6.0000  12.0107
     12    2 C     6     14.230017      7.825823      6.775000   6.0000  12.0107
     13    2 C     6      6.959983      7.825823      6.775000   6.0000  12.0107
     14    2 C     6     14.230017      9.184177      6.775000   6.0000  12.0107
     15    2 C     6      6.959983      9.184177      6.775000   6.0000  12.0107
     16    2 C     6     11.818523      9.214423      6.775000   6.0000  12.0107
     17    2 C     6      9.371477      9.214423      6.775000   6.0000  12.0107
     18    1 H     1      5.998191      9.703945      6.775000   1.0000   1.0079
     19    1 H     1     15.191809      9.703945      6.775000   1.0000   1.0079
     20    2 C     6      8.154329      9.918647      6.775000   6.0000  12.0107
     21    2 C     6     13.035671      9.918647      6.775000   6.0000  12.0107
     22    2 C     6     10.595000      9.927607      6.775000   6.0000  12.0107
     23    1 H     1     10.595000     10.700652      7.548044   1.0000   1.0079
     24    1 H     1     10.595000     10.700652      6.001956   1.0000   1.0079
     25    1 H     1     13.035671     11.011897      6.775000   1.0000   1.0079
     26    1 H     1      8.154329     11.011897      6.775000   1.0000   1.0079



 SCF PARAMETERS         Density guess:                                   RESTART
                        --------------------------------------------------------
                        max_scf:                                             200
                        max_scf_history:                                       0
                        max_diis:                                              4
                        --------------------------------------------------------
                        eps_scf:                                        1.00E-06
                        eps_scf_history:                                0.00E+00
                        eps_diis:                                       1.00E-01
                        eps_eigval:                                     1.00E-05
                        --------------------------------------------------------
                        level_shift [a.u.]:                             0.000000
                        added MOs                                       100    0
                        --------------------------------------------------------
                        Mixing method:                            BROYDEN_MIXING
                                                charge density mixing in g-space
                        --------------------------------------------------------
                        Smear method:                                FERMI_DIRAC
                        Electronic temperature [K]:                        100.0
                        Electronic temperature [a.u.]:                  3.17E-04
                        Accuracy threshold:                             1.00E-10
                        --------------------------------------------------------
                        No outer SCF

 PW_GRID| Information for grid number                                          1
 PW_GRID| Grid distributed over                                    48 processors
 PW_GRID| Real space group dimensions                                    48    1
 PW_GRID| the grid is blocked:                                                NO
 PW_GRID| Cutoff [a.u.]                                                    300.0
 PW_GRID| spherical cutoff:                                                   NO
 PW_GRID|   Bounds   1           -157     157                Points:         315
 PW_GRID|   Bounds   2           -126     125                Points:         252
 PW_GRID|   Bounds   3           -100      99                Points:         200
 PW_GRID| Volume element (a.u.^3)  0.2076E-02     Volume (a.u.^3)     32958.7834
 PW_GRID| Grid span                                                    FULLSPACE
 PW_GRID|   Distribution                         Average         Max         Min
 PW_GRID|   G-Vectors                           330750.0      330750      330750
 PW_GRID|   G-Rays                                1050.0        1050        1050
 PW_GRID|   Real Space Points                   330750.0      352800      302400

 PW_GRID| Information for grid number                                          2
 PW_GRID| Number of the reference grid                                         1
 PW_GRID| Grid distributed over                                    48 processors
 PW_GRID| Real space group dimensions                                    48    1
 PW_GRID| the grid is blocked:                                                NO
 PW_GRID| Cutoff [a.u.]                                                    100.0
 PW_GRID| spherical cutoff:                                                   NO
 PW_GRID|   Bounds   1            -94      94                Points:         189
 PW_GRID|   Bounds   2            -75      74                Points:         150
 PW_GRID|   Bounds   3            -60      59                Points:         120
 PW_GRID| Volume element (a.u.^3)  0.9688E-02     Volume (a.u.^3)     32958.7834
 PW_GRID| Grid span                                                    FULLSPACE
 PW_GRID|   Distribution                         Average         Max         Min
 PW_GRID|   G-Vectors                            70875.0       71631       70119
 PW_GRID|   G-Rays                                 375.0         379         371
 PW_GRID|   Real Space Points                    70875.0       72000       54000

 PW_GRID| Information for grid number                                          3
 PW_GRID| Number of the reference grid                                         1
 PW_GRID| Grid distributed over                                    48 processors
 PW_GRID| Real space group dimensions                                    48    1
 PW_GRID| the grid is blocked:                                                NO
 PW_GRID| Cutoff [a.u.]                                                     33.3
 PW_GRID| spherical cutoff:                                                   NO
 PW_GRID|   Bounds   1            -52      52                Points:         105
 PW_GRID|   Bounds   2            -42      41                Points:          84
 PW_GRID|   Bounds   3            -35      34                Points:          70
 PW_GRID| Volume element (a.u.^3)  0.5338E-01     Volume (a.u.^3)     32958.7834
 PW_GRID| Grid span                                                    FULLSPACE
 PW_GRID|   Distribution                         Average         Max         Min
 PW_GRID|   G-Vectors                            12862.5       13545       12390
 PW_GRID|   G-Rays                                 122.5         129         118
 PW_GRID|   Real Space Points                    12862.5       17640       11760

 PW_GRID| Information for grid number                                          4
 PW_GRID| Number of the reference grid                                         1
 PW_GRID| Grid distributed over                                    48 processors
 PW_GRID| Real space group dimensions                                    48    1
 PW_GRID| the grid is blocked:                                                NO
 PW_GRID| Cutoff [a.u.]                                                     11.1
 PW_GRID| spherical cutoff:                                                   NO
 PW_GRID|   Bounds   1            -31      31                Points:          63
 PW_GRID|   Bounds   2            -25      24                Points:          50
 PW_GRID|   Bounds   3            -20      19                Points:          40
 PW_GRID| Volume element (a.u.^3)  0.2616         Volume (a.u.^3)     32958.7834
 PW_GRID| Grid span                                                    FULLSPACE
 PW_GRID|   Distribution                         Average         Max         Min
 PW_GRID|   G-Vectors                             2625.0        2772        2457
 PW_GRID|   G-Rays                                  41.7          44          39
 PW_GRID|   Real Space Points                     2625.0        4000        2000

 POISSON| Solver                                             MULTIPOLE (Bloechl)
 POISSON| Periodicity                                                       NONE

 RS_GRID| Information for grid number                                          1
 RS_GRID|   Bounds   1           -157     157                Points:         315
 RS_GRID|   Bounds   2           -126     125                Points:         252
 RS_GRID|   Bounds   3           -100      99                Points:         200
 RS_GRID| Real space distribution over                                  8 groups
 RS_GRID| Real space distribution along direction                              1
 RS_GRID| Border size                                                         28
 RS_GRID| Real space distribution over                                  6 groups
 RS_GRID| Real space distribution along direction                              2
 RS_GRID| Border size                                                         28
 RS_GRID|   Distribution                         Average         Max         Min
 RS_GRID|   Planes                                  95.4          96          95
 RS_GRID|   Distribution                         Average         Max         Min
 RS_GRID|   Planes                                  98.0          98          98

 RS_GRID| Information for grid number                                          2
 RS_GRID|   Bounds   1            -94      94                Points:         189
 RS_GRID|   Bounds   2            -75      74                Points:         150
 RS_GRID|   Bounds   3            -60      59                Points:         120
 RS_GRID| Real space distribution over                                  8 groups
 RS_GRID| Real space distribution along direction                              1
 RS_GRID| Border size                                                         29
 RS_GRID| Real space distribution over                                  6 groups
 RS_GRID| Real space distribution along direction                              2
 RS_GRID| Border size                                                         29
 RS_GRID|   Distribution                         Average         Max         Min
 RS_GRID|   Planes                                  81.6          82          81
 RS_GRID|   Distribution                         Average         Max         Min
 RS_GRID|   Planes                                  83.0          83          83

 RS_GRID| Information for grid number                                          3
 RS_GRID|   Bounds   1            -52      52                Points:         105
 RS_GRID|   Bounds   2            -42      41                Points:          84
 RS_GRID|   Bounds   3            -35      34                Points:          70
 RS_GRID| Real space fully replicated
 RS_GRID| Group size                                                           1

 RS_GRID| Information for grid number                                          4
 RS_GRID|   Bounds   1            -31      31                Points:          63
 RS_GRID|   Bounds   2            -25      24                Points:          50
 RS_GRID|   Bounds   3            -20      19                Points:          40
 RS_GRID| Real space fully replicated
 RS_GRID| Group size                                                           1

 OVERLAP MATRIX CONDITION NUMBER
 1-Norm Condition Number (Estimate)
   CN : |A|*|A^-1|:  2.006E+001 *  1.662E+003   = 3.335E+004  Log(1-CN):  4.5231
 1-Norm and 2-Norm Condition Numbers using Diagonalization
   CN : |A|*|A^-1|:  2.006E+001 *  1.691E+003   = 3.393E+004  Log(1-CN):  4.5305
   CN : max/min ev:  1.014E+001 /  1.099E-003   = 9.235E+003  Log(2-CN):  3.9654

 Extrapolation method: initial_guess

 *** WARNING in qs_initial_guess.F:308 :: User requested to restart the    ***
 *** wavefunction from the file named: MOLNAME-RESTART.wfn. This file does ***
 *** not exist. Please check the existence of the file or change properly  ***
 *** the value of the keyword WFN_RESTART_FILE_NAME. Calculation continues ***
 *** using ATOMIC GUESS.                                                   ***


 Atomic guess: The first density matrix is obtained in terms of atomic orbitals
               and electronic configurations assigned to each atomic kind

 Guess for atomic kind: H

 Electronic structure
    Total number of core electrons                                          0.00
    Total number of valence electrons                                       1.00
    Total number of electrons                                               1.00
    Multiplicity                                                   not specified
    S      1.00


 *******************************************************************************
                  Iteration          Convergence                     Energy [au]
 *******************************************************************************
                          1        0.105001E-01                  -0.442912571909
                          2        0.809393E-03                  -0.443000038014
                          3        0.126045E-03                  -0.443002205783
                          4        0.926691E-07                  -0.443002227638

 Energy components [Hartree]           Total Energy ::           -0.443002227638
                                        Band Energy ::           -0.231242105371
                                     Kinetic Energy ::            0.416655567325
                                   Potential Energy ::           -0.859657794963
                                      Virial (-V/T) ::            2.063233669195
                                        Core Energy ::           -0.493343888102
                                          XC Energy ::           -0.231659799565
                                     Coulomb Energy ::            0.282001460029

 Orbital energies  State     L     Occupation   Energy[a.u.]          Energy[eV]

                       1     0          1.000      -0.231242           -6.292418


 Total Electron Density at R=0:                                         0.184980

 Guess for atomic kind: C

 Electronic structure
    Total number of core electrons                                          0.00
    Total number of valence electrons                                       6.00
    Total number of electrons                                               6.00
    Multiplicity                                                   not specified
    S      2.00  2.00
    P      2.00


 *******************************************************************************
                  Iteration          Convergence                     Energy [au]
 *******************************************************************************
                          1        0.110940                     -36.966846197933
                          2        0.618479E-01                 -36.973380131832
                          3        0.312040E-03                 -36.976281169724
                          4        0.543046E-05                 -36.976281232084
                          5        0.506045E-09                 -36.976281232104

 Energy components [Hartree]           Total Energy ::          -36.976281232104
                                        Band Energy ::          -20.794821508944
                                     Kinetic Energy ::           36.488299270274
                                   Potential Energy ::          -73.464580502377
                                      Virial (-V/T) ::            2.013373655983
                                        Core Energy ::          -49.914993802944
                                          XC Energy ::           -4.745664989265
                                     Coulomb Energy ::           17.684377560105

 Orbital energies  State     L     Occupation   Energy[a.u.]          Energy[eV]

                       1     0          2.000      -9.777613         -266.062376
                       2     0          2.000      -0.465310          -12.661731

                       1     1          2.000      -0.154488           -4.203828


 Total Electron Density at R=0:                                        77.917232
 Re-scaling the density matrix to get the right number of electrons
                  # Electrons              Trace(P)               Scaling factor
                           96                96.000                        1.000

 Number of electrons:                                                         96
 Number of occupied orbitals:                                                 48
 Number of molecular orbitals:                                               148

 Number of orbital functions:                                                198
 Number of independent orbital functions:                                    198


 SCF WAVEFUNCTION OPTIMIZATION

  Step     Update method      Time    Convergence         Total energy    Change
  ------------------------------------------------------------------------------
  Decoupling Energy:                                              -0.0000080788

 MO| EIGENVALUES AND OCCUPATION NUMBERS AFTER SCF STEP 0
 MO|
 MO|  Index      Eigenvalue [a.u.]        Eigenvalue [eV]             Occupation
 MO|      1             -10.011481            -272.426249               2.000000
 MO|      2             -10.011354            -272.422789               2.000000
 MO|      3              -9.984128            -271.681945               2.000000
 MO|      4              -9.984124            -271.681827               2.000000
 MO|      5              -9.983785            -271.672596               2.000000
 MO|      6              -9.983783            -271.672540               2.000000
 MO|      7              -9.977374            -271.498165               2.000000
 MO|      8              -9.977373            -271.498117               2.000000
 MO|      9              -9.977284            -271.495692               2.000000
 MO|     10              -9.977267            -271.495237               2.000000
 MO|     11              -9.962376            -271.090041               2.000000
 MO|     12              -9.962342            -271.089115               2.000000
 MO|     13              -9.962195            -271.085102               2.000000
 MO|     14              -9.962170            -271.084420               2.000000
 MO|     15              -0.947793             -25.790752               2.000000
 MO|     16              -0.914855             -24.894483               2.000000
 MO|     17              -0.879364             -23.928708               2.000000
 MO|     18              -0.877819             -23.886674               2.000000
 MO|     19              -0.818281             -22.266562               2.000000
 MO|     20              -0.814586             -22.166013               2.000000
 MO|     21              -0.783206             -21.312121               2.000000
 MO|     22              -0.744209             -20.250968               2.000000
 MO|     23              -0.701226             -19.081329               2.000000
 MO|     24              -0.695279             -18.919500               2.000000
 MO|     25              -0.673844             -18.336240               2.000000
 MO|     26              -0.628442             -17.100777               2.000000
 MO|     27              -0.608712             -16.563886               2.000000
 MO|     28              -0.595864             -16.214285               2.000000
 MO|     29              -0.553016             -15.048321               2.000000
 MO|     30              -0.548325             -14.920684               2.000000
 MO|     31              -0.545131             -14.833762               2.000000
 MO|     32              -0.543739             -14.795882               2.000000
 MO|     33              -0.527346             -14.349805               2.000000
 MO|     34              -0.507867             -13.819774               2.000000
 MO|     35              -0.506112             -13.772008               2.000000
 MO|     36              -0.499862             -13.601940               2.000000
 MO|     37              -0.496604             -13.513274               2.000000
 MO|     38              -0.494362             -13.452274               2.000000
 MO|     39              -0.458621             -12.479703               2.000000
 MO|     40              -0.446494             -12.149706               2.000000
 MO|     41              -0.431890             -11.752323               2.000000
 MO|     42              -0.425269             -11.572164               2.000000
 MO|     43              -0.424101             -11.540377               2.000000
 MO|     44              -0.411991             -11.210850               2.000000
 MO|     45              -0.333083              -9.063653               2.000000
 MO|     46              -0.329260              -8.959633               2.000000
 MO|     47              -0.318849              -8.676322               2.000000
 MO|     48              -0.298441              -8.120989               2.000000
 MO|     49              -0.151385              -4.119398               0.000000
 MO|     50              -0.134784              -3.667658               0.000000
 MO|     51              -0.132912              -3.616716               0.000000
 MO|     52              -0.118468              -3.223674               0.000000
 MO|     53              -0.044867              -1.220903               0.000000
 MO|     54              -0.040060              -1.090080               0.000000
 MO|     55              -0.037670              -1.025057               0.000000
 MO|     56              -0.035699              -0.971420               0.000000
 MO|     57              -0.023302              -0.634084               0.000000
 MO|     58              -0.007540              -0.205168               0.000000
 MO|     59               0.004935               0.134299               0.000000
 MO|     60               0.005364               0.145955               0.000000
 MO|     61               0.007676               0.208867               0.000000
 MO|     62               0.013363               0.363632               0.000000
 MO|     63               0.016348               0.444846               0.000000
 MO|     64               0.026402               0.718438               0.000000
 MO|     65               0.035346               0.961813               0.000000
 MO|     66               0.050661               1.378563               0.000000
 MO|     67               0.051380               1.398117               0.000000
 MO|     68               0.056956               1.549841               0.000000
 MO|     69               0.062718               1.706633               0.000000
 MO|     70               0.069663               1.895623               0.000000
 MO|     71               0.076963               2.094274               0.000000
 MO|     72               0.080297               2.184999               0.000000
 MO|     73               0.081392               2.214781               0.000000
 MO|     74               0.087132               2.370995               0.000000
 MO|     75               0.090411               2.460206               0.000000
 MO|     76               0.101457               2.760785               0.000000
 MO|     77               0.107009               2.911860               0.000000
 MO|     78               0.108975               2.965363               0.000000
 MO|     79               0.109496               2.979534               0.000000
 MO|     80               0.114446               3.114243               0.000000
 MO|     81               0.120695               3.284282               0.000000
 MO|     82               0.124493               3.387615               0.000000
 MO|     83               0.130598               3.553751               0.000000
 MO|     84               0.131376               3.574916               0.000000
 MO|     85               0.137491               3.741318               0.000000
 MO|     86               0.146589               3.988879               0.000000
 MO|     87               0.154457               4.202977               0.000000
 MO|     88               0.155207               4.223401               0.000000
 MO|     89               0.162213               4.414041               0.000000
 MO|     90               0.164694               4.481540               0.000000
 MO|     91               0.175637               4.779322               0.000000
 MO|     92               0.183152               4.983815               0.000000
 MO|     93               0.184475               5.019815               0.000000
 MO|     94               0.190368               5.180172               0.000000
 MO|     95               0.194602               5.295403               0.000000
 MO|     96               0.203415               5.535191               0.000000
 MO|     97               0.207577               5.648450               0.000000
 MO|     98               0.208865               5.683517               0.000000
 MO|     99               0.210771               5.735375               0.000000
 MO|    100               0.214536               5.837833               0.000000
 MO|    101               0.216202               5.883163               0.000000
 MO|    102               0.240985               6.557547               0.000000
 MO|    103               0.243289               6.620219               0.000000
 MO|    104               0.244285               6.647331               0.000000
 MO|    105               0.247184               6.726208               0.000000
 MO|    106               0.250267               6.810105               0.000000
 MO|    107               0.264813               7.205915               0.000000
 MO|    108               0.279579               7.607738               0.000000
 MO|    109               0.280435               7.631020               0.000000
 MO|    110               0.282648               7.691254               0.000000
 MO|    111               0.285463               7.767840               0.000000
 MO|    112               0.309172               8.413004               0.000000
 MO|    113               0.321433               8.746646               0.000000
 MO|    114               0.343171               9.338164               0.000000
 MO|    115               0.347058               9.443931               0.000000
 MO|    116               0.351331               9.560201               0.000000
 MO|    117               0.359773               9.789924               0.000000
 MO|    118               0.395908              10.773196               0.000000
 MO|    119               0.427270              11.626610               0.000000
 MO|    120               0.427926              11.644467               0.000000
 MO|    121               0.437690              11.910144               0.000000
 MO|    122               0.457128              12.439073               0.000000
 MO|    123               0.470019              12.789880               0.000000
 MO|    124               0.471118              12.819767               0.000000
 MO|    125               0.498533              13.565775               0.000000
 MO|    126               0.520836              14.172673               0.000000
 MO|    127               0.523159              14.235874               0.000000
 MO|    128               0.523535              14.246106               0.000000
 MO|    129               0.525446              14.298122               0.000000
 MO|    130               0.529294              14.402820               0.000000
 MO|    131               0.548928              14.937102               0.000000
 MO|    132               0.575720              15.666143               0.000000
 MO|    133               0.606955              16.516093               0.000000
 MO|    134               0.618186              16.821693               0.000000
 MO|    135               0.640834              17.437974               0.000000
 MO|    136               0.641523              17.456726               0.000000
 MO|    137               0.653356              17.778716               0.000000
 MO|    138               0.665030              18.096377               0.000000
 MO|    139               0.669589              18.220441               0.000000
 MO|    140               0.677269              18.429422               0.000000
 MO|    141               0.687918              18.719190               0.000000
 MO|    142               0.693612              18.874152               0.000000
 MO|    143               0.707638              19.255812               0.000000
 MO|    144               0.714064              19.430682               0.000000
 MO|    145               0.716210              19.489059               0.000000
 MO|    146               0.721375              19.629603               0.000000
 MO|    147               0.730887              19.888460               0.000000
 MO|    148               0.736282              20.035261               0.000000
 MO| Sum:                                                              96.000000
 MO| E(Fermi):           -0.161921 a.u.         -4.406106 eV
 MO| Band gap:            0.147056 a.u.          4.001591 eV

     1 NoMix/Diag. 0.40E+00    0.2     0.58763940      -537.4693940354 -5.37E+02
  Decoupling Energy:                                               0.0007518775

 MO| EIGENVALUES AND OCCUPATION NUMBERS AFTER SCF STEP 1
 MO|
 MO|  Index      Eigenvalue [a.u.]        Eigenvalue [eV]             Occupation
 MO|      1              -9.934755            -270.338438               2.000000
 MO|      2              -9.934724            -270.337601               2.000000
 MO|      3              -9.934572            -270.333441               2.000000
 MO|      4              -9.934547            -270.332765               2.000000
 MO|      5              -9.906097            -269.558608               2.000000
 MO|      6              -9.905974            -269.555256               2.000000
 MO|      7              -9.904626            -269.518584               2.000000
 MO|      8              -9.904623            -269.518500               2.000000
 MO|      9              -9.904544            -269.516338               2.000000
 MO|     10              -9.904526            -269.515847               2.000000
 MO|     11              -9.895934            -269.282056               2.000000
 MO|     12              -9.895930            -269.281949               2.000000
 MO|     13              -9.895585            -269.272553               2.000000
 MO|     14              -9.895583            -269.272502               2.000000
 MO|     15              -0.913971             -24.870417               2.000000
 MO|     16              -0.873715             -23.774984               2.000000
 MO|     17              -0.835526             -22.735808               2.000000
 MO|     18              -0.829925             -22.583407               2.000000
 MO|     19              -0.776353             -21.125631               2.000000
 MO|     20              -0.772281             -21.014827               2.000000
 MO|     21              -0.734934             -19.998576               2.000000
 MO|     22              -0.699183             -19.025739               2.000000
 MO|     23              -0.664369             -18.078406               2.000000
 MO|     24              -0.648827             -17.655475               2.000000
 MO|     25              -0.632218             -17.203537               2.000000
 MO|     26              -0.582727             -15.856822               2.000000
 MO|     27              -0.567045             -15.430080               2.000000
 MO|     28              -0.553356             -15.057579               2.000000
 MO|     29              -0.509039             -13.851657               2.000000
 MO|     30              -0.503571             -13.702855               2.000000
 MO|     31              -0.502546             -13.674965               2.000000
 MO|     32              -0.499728             -13.598295               2.000000
 MO|     33              -0.496983             -13.523586               2.000000
 MO|     34              -0.467052             -12.709119               2.000000
 MO|     35              -0.466155             -12.684713               2.000000
 MO|     36              -0.459819             -12.512323               2.000000
 MO|     37              -0.452398             -12.310381               2.000000
 MO|     38              -0.447682             -12.182054               2.000000
 MO|     39              -0.411147             -11.187888               2.000000
 MO|     40              -0.403679             -10.984661               2.000000
 MO|     41              -0.403213             -10.971996               2.000000
 MO|     42              -0.386583             -10.519464               2.000000
 MO|     43              -0.376135             -10.235141               2.000000
 MO|     44              -0.374414             -10.188314               2.000000
 MO|     45              -0.302859              -8.241205               2.000000
 MO|     46              -0.302324              -8.226644               2.000000
 MO|     47              -0.285236              -7.761673               2.000000
 MO|     48              -0.272754              -7.422004               2.000000
 MO|     49              -0.124177              -3.379024               0.000000
 MO|     50              -0.105333              -2.866268               0.000000
 MO|     51              -0.104947              -2.855742               0.000000
 MO|     52              -0.093633              -2.547876               0.000000
 MO|     53              -0.042259              -1.149916               0.000000
 MO|     54              -0.039192              -1.066479               0.000000
 MO|     55              -0.031613              -0.860241               0.000000
 MO|     56              -0.020504              -0.557931               0.000000
 MO|     57              -0.014884              -0.405027               0.000000
 MO|     58              -0.006684              -0.181877               0.000000
 MO|     59               0.007480               0.203533               0.000000
 MO|     60               0.008155               0.221895               0.000000
 MO|     61               0.009603               0.261304               0.000000
 MO|     62               0.014705               0.400134               0.000000
 MO|     63               0.030533               0.830843               0.000000
 MO|     64               0.034787               0.946594               0.000000
 MO|     65               0.034826               0.947652               0.000000
 MO|     66               0.045236               1.230932               0.000000
 MO|     67               0.050558               1.375753               0.000000
 MO|     68               0.060580               1.648468               0.000000
 MO|     69               0.062134               1.690747               0.000000
 MO|     70               0.065164               1.773210               0.000000
 MO|     71               0.075413               2.052100               0.000000
 MO|     72               0.077855               2.118545               0.000000
 MO|     73               0.086136               2.343868               0.000000
 MO|     74               0.088972               2.421038               0.000000
 MO|     75               0.102165               2.780049               0.000000
 MO|     76               0.105677               2.875631               0.000000
 MO|     77               0.108900               2.963327               0.000000
 MO|     78               0.110293               3.001235               0.000000
 MO|     79               0.110392               3.003917               0.000000
 MO|     80               0.120049               3.266699               0.000000
 MO|     81               0.131785               3.586045               0.000000
 MO|     82               0.134338               3.655517               0.000000
 MO|     83               0.135855               3.696804               0.000000
 MO|     84               0.146462               3.985421               0.000000
 MO|     85               0.157504               4.285910               0.000000
 MO|     86               0.157779               4.293397               0.000000
 MO|     87               0.160926               4.379025               0.000000
 MO|     88               0.162444               4.420318               0.000000
 MO|     89               0.166927               4.542313               0.000000
 MO|     90               0.171320               4.661842               0.000000
 MO|     91               0.173600               4.723883               0.000000
 MO|     92               0.183492               4.993082               0.000000
 MO|     93               0.193921               5.276864               0.000000
 MO|     94               0.205975               5.604870               0.000000
 MO|     95               0.205984               5.605114               0.000000
 MO|     96               0.207921               5.657814               0.000000
 MO|     97               0.208818               5.682226               0.000000
 MO|     98               0.216527               5.892006               0.000000
 MO|     99               0.221167               6.018253               0.000000
 MO|    100               0.234003               6.367537               0.000000
 MO|    101               0.236376               6.432111               0.000000
 MO|    102               0.252728               6.877069               0.000000
 MO|    103               0.259648               7.065378               0.000000
 MO|    104               0.260595               7.091152               0.000000
 MO|    105               0.265723               7.230684               0.000000
 MO|    106               0.269663               7.337891               0.000000
 MO|    107               0.271500               7.387899               0.000000
 MO|    108               0.274474               7.468823               0.000000
 MO|    109               0.288052               7.838288               0.000000
 MO|    110               0.291593               7.934650               0.000000
 MO|    111               0.303298               8.253165               0.000000
 MO|    112               0.335093               9.118337               0.000000
 MO|    113               0.338686               9.216102               0.000000
 MO|    114               0.353338               9.614813               0.000000
 MO|    115               0.361771               9.844286               0.000000
 MO|    116               0.366933               9.984747               0.000000
 MO|    117               0.389755              10.605761               0.000000
 MO|    118               0.402193              10.944221               0.000000
 MO|    119               0.435804              11.858831               0.000000
 MO|    120               0.443837              12.077405               0.000000
 MO|    121               0.467875              12.731515               0.000000
 MO|    122               0.468656              12.752773               0.000000
 MO|    123               0.490548              13.348488               0.000000
 MO|    124               0.510069              13.879690               0.000000
 MO|    125               0.517506              14.082067               0.000000
 MO|    126               0.534739              14.550986               0.000000
 MO|    127               0.541085              14.723678               0.000000
 MO|    128               0.544252              14.809850               0.000000
 MO|    129               0.548472              14.924690               0.000000
 MO|    130               0.559652              15.228910               0.000000
 MO|    131               0.562315              15.301365               0.000000
 MO|    132               0.586579              15.961624               0.000000
 MO|    133               0.645903              17.575913               0.000000
 MO|    134               0.646040              17.579645               0.000000
 MO|    135               0.661764              18.007527               0.000000
 MO|    136               0.668469              18.189979               0.000000
 MO|    137               0.672446              18.298184               0.000000
 MO|    138               0.682734              18.578126               0.000000
 MO|    139               0.699562              19.036061               0.000000
 MO|    140               0.702123              19.105745               0.000000
 MO|    141               0.703485              19.142813               0.000000
 MO|    142               0.724431              19.712782               0.000000
 MO|    143               0.725472              19.741090               0.000000
 MO|    144               0.730656              19.882166               0.000000
 MO|    145               0.731548              19.906422               0.000000
 MO|    146               0.743474              20.230945               0.000000
 MO|    147               0.747016              20.327333               0.000000
 MO|    148               0.750012              20.408875               0.000000
 MO| Sum:                                                              96.000000
 MO| E(Fermi):           -0.134713 a.u.         -3.665732 eV
 MO| Band gap:            0.148577 a.u.          4.042980 eV

     2 Broy./Diag. 0.40E+00    0.2     0.19886199      -525.3985648293  1.21E+01
  Decoupling Energy:                                               0.0001842112

 MO| EIGENVALUES AND OCCUPATION NUMBERS AFTER SCF STEP 2
 MO|
 MO|  Index      Eigenvalue [a.u.]        Eigenvalue [eV]             Occupation
 MO|      1              -9.822199            -267.275640               2.000000
 MO|      2              -9.822168            -267.274779               2.000000
 MO|      3              -9.822020            -267.270754               2.000000
 MO|      4              -9.821994            -267.270057               2.000000
 MO|      5              -9.815129            -267.083235               2.000000
 MO|      6              -9.815126            -267.083173               2.000000
 MO|      7              -9.815045            -267.080960               2.000000
 MO|      8              -9.815028            -267.080493               2.000000
 MO|      9              -9.811771            -266.991867               2.000000
 MO|     10              -9.811767            -266.991765               2.000000
 MO|     11              -9.811425            -266.982464               2.000000
 MO|     12              -9.811423            -266.982408               2.000000
 MO|     13              -9.803210            -266.758910               2.000000
 MO|     14              -9.803092            -266.755699               2.000000
 MO|     15              -0.851551             -23.171871               2.000000
 MO|     16              -0.815289             -22.185149               2.000000
 MO|     17              -0.772832             -21.029825               2.000000
 MO|     18              -0.771070             -20.981881               2.000000
 MO|     19              -0.716978             -19.509967               2.000000
 MO|     20              -0.711419             -19.358695               2.000000
 MO|     21              -0.676095             -18.397475               2.000000
 MO|     22              -0.635827             -17.301733               2.000000
 MO|     23              -0.603238             -16.414944               2.000000
 MO|     24              -0.587334             -15.982169               2.000000
 MO|     25              -0.572569             -15.580403               2.000000
 MO|     26              -0.522192             -14.209571               2.000000
 MO|     27              -0.507877             -13.820050               2.000000
 MO|     28              -0.496292             -13.504806               2.000000
 MO|     29              -0.450234             -12.251497               2.000000
 MO|     30              -0.445467             -12.121776               2.000000
 MO|     31              -0.444447             -12.094021               2.000000
 MO|     32              -0.443548             -12.069547               2.000000
 MO|     33              -0.435949             -11.862784               2.000000
 MO|     34              -0.409474             -11.142357               2.000000
 MO|     35              -0.407274             -11.082483               2.000000
 MO|     36              -0.403901             -10.990714               2.000000
 MO|     37              -0.386682             -10.522157               2.000000
 MO|     38              -0.386591             -10.519670               2.000000
 MO|     39              -0.358716              -9.761155               2.000000
 MO|     40              -0.353468              -9.618348               2.000000
 MO|     41              -0.344907              -9.385386               2.000000
 MO|     42              -0.330435              -8.991598               2.000000
 MO|     43              -0.324300              -8.824654               2.000000
 MO|     44              -0.311530              -8.477154               2.000000
 MO|     45              -0.258176              -7.025330               2.000000
 MO|     46              -0.255241              -6.945462               2.000000
 MO|     47              -0.240015              -6.531152               2.000000
 MO|     48              -0.223296              -6.076205               2.000000
 MO|     49              -0.083937              -2.284049               0.000000
 MO|     50              -0.060849              -1.655796               0.000000
 MO|     51              -0.058847              -1.601303               0.000000
 MO|     52              -0.048522              -1.320355               0.000000
 MO|     53              -0.026573              -0.723099               0.000000
 MO|     54              -0.024182              -0.658014               0.000000
 MO|     55              -0.015556              -0.423300               0.000000
 MO|     56              -0.005569              -0.151547               0.000000
 MO|     57               0.006118               0.166473               0.000000
 MO|     58               0.012766               0.347389               0.000000
 MO|     59               0.018794               0.511423               0.000000
 MO|     60               0.021690               0.590203               0.000000
 MO|     61               0.022546               0.613518               0.000000
 MO|     62               0.028202               0.767420               0.000000
 MO|     63               0.045764               1.245291               0.000000
 MO|     64               0.049436               1.345224               0.000000
 MO|     65               0.052647               1.432610               0.000000
 MO|     66               0.063234               1.720687               0.000000
 MO|     67               0.070275               1.912292               0.000000
 MO|     68               0.072919               1.984222               0.000000
 MO|     69               0.076364               2.077978               0.000000
 MO|     70               0.085669               2.331163               0.000000
 MO|     71               0.089191               2.426997               0.000000
 MO|     72               0.091700               2.495289               0.000000
 MO|     73               0.097659               2.657443               0.000000
 MO|     74               0.113122               3.078205               0.000000
 MO|     75               0.116733               3.176458               0.000000
 MO|     76               0.118496               3.224434               0.000000
 MO|     77               0.118752               3.231408               0.000000
 MO|     78               0.126155               3.432846               0.000000
 MO|     79               0.133274               3.626564               0.000000
 MO|     80               0.149371               4.064598               0.000000
 MO|     81               0.152725               4.155847               0.000000
 MO|     82               0.158418               4.310765               0.000000
 MO|     83               0.160036               4.354808               0.000000
 MO|     84               0.161846               4.404049               0.000000
 MO|     85               0.175700               4.781042               0.000000
 MO|     86               0.182643               4.969976               0.000000
 MO|     87               0.191571               5.212903               0.000000
 MO|     88               0.194021               5.279578               0.000000
 MO|     89               0.195224               5.312314               0.000000
 MO|     90               0.198445               5.399959               0.000000
 MO|     91               0.202952               5.522602               0.000000
 MO|     92               0.210962               5.740559               0.000000
 MO|     93               0.217230               5.911129               0.000000
 MO|     94               0.221930               6.039010               0.000000
 MO|     95               0.229128               6.234894               0.000000
 MO|     96               0.233791               6.361778               0.000000
 MO|     97               0.242786               6.606554               0.000000
 MO|     98               0.249807               6.797593               0.000000
 MO|     99               0.251164               6.834523               0.000000
 MO|    100               0.270618               7.363901               0.000000
 MO|    101               0.271952               7.400185               0.000000
 MO|    102               0.275211               7.488885               0.000000
 MO|    103               0.282806               7.695552               0.000000
 MO|    104               0.286035               7.783410               0.000000
 MO|    105               0.297735               8.101771               0.000000
 MO|    106               0.298139               8.112768               0.000000
 MO|    107               0.308113               8.384175               0.000000
 MO|    108               0.313559               8.532370               0.000000
 MO|    109               0.319164               8.684905               0.000000
 MO|    110               0.323125               8.792685               0.000000
 MO|    111               0.337565               9.185600               0.000000
 MO|    112               0.352043               9.579572               0.000000
 MO|    113               0.366035               9.960331               0.000000
 MO|    114               0.384032              10.450040               0.000000
 MO|    115               0.402956              10.964999               0.000000
 MO|    116               0.418218              11.380279               0.000000
 MO|    117               0.423934              11.535825               0.000000
 MO|    118               0.443467              12.067357               0.000000
 MO|    119               0.458061              12.464480               0.000000
 MO|    120               0.476539              12.967294               0.000000
 MO|    121               0.494934              13.467828               0.000000
 MO|    122               0.524459              14.271268               0.000000
 MO|    123               0.527130              14.343938               0.000000
 MO|    124               0.555390              15.112927               0.000000
 MO|    125               0.567149              15.432896               0.000000
 MO|    126               0.569128              15.486761               0.000000
 MO|    127               0.576114              15.676846               0.000000
 MO|    128               0.584859              15.914826               0.000000
 MO|    129               0.588966              16.026580               0.000000
 MO|    130               0.598389              16.283004               0.000000
 MO|    131               0.614613              16.724465               0.000000
 MO|    132               0.628617              17.105543               0.000000
 MO|    133               0.691938              18.828602               0.000000
 MO|    134               0.693972              18.883943               0.000000
 MO|    135               0.702207              19.108025               0.000000
 MO|    136               0.703775              19.150698               0.000000
 MO|    137               0.714528              19.443283               0.000000
 MO|    138               0.716039              19.484416               0.000000
 MO|    139               0.732672              19.937032               0.000000
 MO|    140               0.741404              20.174636               0.000000
 MO|    141               0.752514              20.476957               0.000000
 MO|    142               0.757804              20.620905               0.000000
 MO|    143               0.760941              20.706253               0.000000
 MO|    144               0.765847              20.839759               0.000000
 MO|    145               0.769452              20.937846               0.000000
 MO|    146               0.782472              21.292134               0.000000
 MO|    147               0.783935              21.331955               0.000000
 MO|    148               0.791621              21.541091               0.000000
 MO| Sum:                                                              96.000000
 MO| E(Fermi):           -0.094474 a.u.         -2.570757 eV
 MO| Band gap:            0.139359 a.u.          3.792156 eV

     3 Broy./Diag. 0.40E+00    0.2     0.11962893      -531.3546071495 -5.96E+00
  Decoupling Energy:                                               0.0001032801

 MO| EIGENVALUES AND OCCUPATION NUMBERS AFTER SCF STEP 3
 MO|
 MO|  Index      Eigenvalue [a.u.]        Eigenvalue [eV]             Occupation
 MO|      1              -9.818945            -267.187074               2.000000
 MO|      2              -9.818914            -267.186227               2.000000
 MO|      3              -9.818766            -267.182200               2.000000
 MO|      4              -9.818739            -267.181485               2.000000
 MO|      5              -9.809469            -266.929215               2.000000
 MO|      6              -9.809464            -266.929085               2.000000
 MO|      7              -9.809382            -266.926862               2.000000
 MO|      8              -9.809366            -266.926424               2.000000
 MO|      9              -9.807166            -266.866551               2.000000
 MO|     10              -9.807051            -266.863433               2.000000
 MO|     11              -9.804771            -266.801400               2.000000
 MO|     12              -9.804768            -266.801294               2.000000
 MO|     13              -9.804425            -266.791963               2.000000
 MO|     14              -9.804423            -266.791919               2.000000
 MO|     15              -0.845705             -23.012804               2.000000
 MO|     16              -0.807493             -21.973004               2.000000
 MO|     17              -0.764721             -20.809127               2.000000
 MO|     18              -0.764187             -20.794581               2.000000
 MO|     19              -0.708418             -19.277040               2.000000
 MO|     20              -0.703463             -19.142214               2.000000
 MO|     21              -0.667062             -18.151673               2.000000
 MO|     22              -0.627012             -17.061851               2.000000
 MO|     23              -0.594460             -16.176079               2.000000
 MO|     24              -0.578736             -15.748201               2.000000
 MO|     25              -0.563107             -15.322929               2.000000
 MO|     26              -0.511831             -13.927638               2.000000
 MO|     27              -0.498860             -13.574680               2.000000
 MO|     28              -0.486097             -13.227381               2.000000
 MO|     29              -0.440953             -11.998943               2.000000
 MO|     30              -0.436935             -11.889606               2.000000
 MO|     31              -0.434761             -11.830458               2.000000
 MO|     32              -0.434546             -11.824594               2.000000
 MO|     33              -0.427265             -11.626477               2.000000
 MO|     34              -0.399540             -10.872048               2.000000
 MO|     35              -0.397632             -10.820117               2.000000
 MO|     36              -0.395785             -10.769856               2.000000
 MO|     37              -0.378977             -10.312491               2.000000
 MO|     38              -0.376582             -10.247312               2.000000
 MO|     39              -0.352260              -9.585483               2.000000
 MO|     40              -0.342684              -9.324894               2.000000
 MO|     41              -0.334303              -9.096838               2.000000
 MO|     42              -0.322582              -8.777901               2.000000
 MO|     43              -0.315316              -8.580188               2.000000
 MO|     44              -0.302736              -8.237877               2.000000
 MO|     45              -0.251367              -6.840052               2.000000
 MO|     46              -0.249135              -6.779314               2.000000
 MO|     47              -0.232547              -6.327928               2.000000
 MO|     48              -0.215894              -5.874786               2.000000
 MO|     49              -0.077085              -2.097599               0.000000
 MO|     50              -0.054189              -1.474550               0.000000
 MO|     51              -0.052620              -1.431871               0.000000
 MO|     52              -0.041656              -1.133514               0.000000
 MO|     53              -0.021395              -0.582182               0.000000
 MO|     54              -0.018958              -0.515873               0.000000
 MO|     55              -0.009998              -0.272063               0.000000
 MO|     56              -0.000348              -0.009462               0.000000
 MO|     57               0.011206               0.304922               0.000000
 MO|     58               0.018697               0.508762               0.000000
 MO|     59               0.023287               0.633660               0.000000
 MO|     60               0.027018               0.735198               0.000000
 MO|     61               0.027647               0.752313               0.000000
 MO|     62               0.032610               0.887373               0.000000
 MO|     63               0.051381               1.398139               0.000000
 MO|     64               0.054616               1.486184               0.000000
 MO|     65               0.056907               1.548524               0.000000
 MO|     66               0.068157               1.854634               0.000000
 MO|     67               0.074652               2.031375               0.000000
 MO|     68               0.078154               2.126675               0.000000
 MO|     69               0.080879               2.200842               0.000000
 MO|     70               0.091087               2.478607               0.000000
 MO|     71               0.094313               2.566376               0.000000
 MO|     72               0.097285               2.647259               0.000000
 MO|     73               0.102511               2.789475               0.000000
 MO|     74               0.119099               3.240856               0.000000
 MO|     75               0.120598               3.281650               0.000000
 MO|     76               0.122880               3.343737               0.000000
 MO|     77               0.123560               3.362229               0.000000
 MO|     78               0.131204               3.570239               0.000000
 MO|     79               0.138990               3.782098               0.000000
 MO|     80               0.154148               4.194568               0.000000
 MO|     81               0.159019               4.327115               0.000000
 MO|     82               0.165557               4.505034               0.000000
 MO|     83               0.166387               4.527628               0.000000
 MO|     84               0.166926               4.542285               0.000000
 MO|     85               0.180635               4.915327               0.000000
 MO|     86               0.189142               5.146803               0.000000
 MO|     87               0.196784               5.354758               0.000000
 MO|     88               0.198018               5.388352               0.000000
 MO|     89               0.200741               5.462442               0.000000
 MO|     90               0.205313               5.586851               0.000000
 MO|     91               0.210091               5.716860               0.000000
 MO|     92               0.218077               5.934190               0.000000
 MO|     93               0.222881               6.064907               0.000000
 MO|     94               0.226480               6.162843               0.000000
 MO|     95               0.235526               6.408993               0.000000
 MO|     96               0.239535               6.518071               0.000000
 MO|     97               0.249198               6.781017               0.000000
 MO|     98               0.256865               6.989662               0.000000
 MO|     99               0.258097               7.023185               0.000000
 MO|    100               0.278537               7.579380               0.000000
 MO|    101               0.279042               7.593128               0.000000
 MO|    102               0.279527               7.606303               0.000000
 MO|    103               0.286933               7.807840               0.000000
 MO|    104               0.291594               7.934675               0.000000
 MO|    105               0.304682               8.290814               0.000000
 MO|    106               0.305258               8.306485               0.000000
 MO|    107               0.315788               8.593039               0.000000
 MO|    108               0.321001               8.734872               0.000000
 MO|    109               0.326146               8.874888               0.000000
 MO|    110               0.330261               8.986850               0.000000
 MO|    111               0.344560               9.375963               0.000000
 MO|    112               0.357168               9.719044               0.000000
 MO|    113               0.370517              10.082272               0.000000
 MO|    114               0.390859              10.635804               0.000000
 MO|    115               0.409712              11.148839               0.000000
 MO|    116               0.425203              11.570352               0.000000
 MO|    117               0.429302              11.681895               0.000000
 MO|    118               0.450235              12.251520               0.000000
 MO|    119               0.464251              12.632911               0.000000
 MO|    120               0.482284              13.123619               0.000000
 MO|    121               0.500554              13.620775               0.000000
 MO|    122               0.530989              14.448952               0.000000
 MO|    123               0.534541              14.545598               0.000000
 MO|    124               0.562775              15.313898               0.000000
 MO|    125               0.572144              15.568837               0.000000
 MO|    126               0.576642              15.691224               0.000000
 MO|    127               0.581905              15.834446               0.000000
 MO|    128               0.591604              16.098376               0.000000
 MO|    129               0.595478              16.203780               0.000000
 MO|    130               0.603091              16.410944               0.000000
 MO|    131               0.622050              16.926842               0.000000
 MO|    132               0.635458              17.291703               0.000000
 MO|    133               0.698368              19.003561               0.000000
 MO|    134               0.699835              19.043466               0.000000
 MO|    135               0.709231              19.299170               0.000000
 MO|    136               0.709461              19.305409               0.000000
 MO|    137               0.721575              19.635058               0.000000
 MO|    138               0.721808              19.641396               0.000000
 MO|    139               0.738734              20.101978               0.000000
 MO|    140               0.746685              20.318327               0.000000
 MO|    141               0.759626              20.670461               0.000000
 MO|    142               0.765278              20.824281               0.000000
 MO|    143               0.767336              20.880271               0.000000
 MO|    144               0.773961              21.060538               0.000000
 MO|    145               0.774911              21.086403               0.000000
 MO|    146               0.787114              21.418463               0.000000
 MO|    147               0.790019              21.497511               0.000000
 MO|    148               0.799167              21.746433               0.000000
 MO| Sum:                                                              96.000000
 MO| E(Fermi):           -0.087622 a.u.         -2.384307 eV
 MO| Band gap:            0.138809 a.u.          3.777187 eV

     4 Broy./Diag. 0.40E+00    0.2     0.01665012      -533.6887205612 -2.33E+00
  Decoupling Energy:                                               0.0000092031

 MO| EIGENVALUES AND OCCUPATION NUMBERS AFTER SCF STEP 4
 MO|
 MO|  Index      Eigenvalue [a.u.]        Eigenvalue [eV]             Occupation
 MO|      1              -9.812429            -267.009761               2.000000
 MO|      2              -9.812398            -267.008918               2.000000
 MO|      3              -9.812250            -267.004903               2.000000
 MO|      4              -9.812223            -267.004178               2.000000
 MO|      5              -9.805514            -266.821597               2.000000
 MO|      6              -9.805510            -266.821493               2.000000
 MO|      7              -9.805428            -266.819276               2.000000
 MO|      8              -9.805412            -266.818828               2.000000
 MO|      9              -9.802136            -266.729686               2.000000
 MO|     10              -9.802021            -266.726544               2.000000
 MO|     11              -9.800967            -266.697881               2.000000
 MO|     12              -9.800963            -266.697774               2.000000
 MO|     13              -9.800620            -266.688441               2.000000
 MO|     14              -9.800619            -266.688403               2.000000
 MO|     15              -0.838688             -22.821860               2.000000
 MO|     16              -0.800940             -21.794675               2.000000
 MO|     17              -0.758228             -20.632446               2.000000
 MO|     18              -0.757027             -20.599741               2.000000
 MO|     19              -0.701727             -19.094961               2.000000
 MO|     20              -0.696763             -18.959887               2.000000
 MO|     21              -0.660323             -17.968292               2.000000
 MO|     22              -0.619982             -16.870562               2.000000
 MO|     23              -0.587106             -15.975979               2.000000
 MO|     24              -0.571933             -15.563096               2.000000
 MO|     25              -0.556076             -15.131609               2.000000
 MO|     26              -0.504719             -13.734107               2.000000
 MO|     27              -0.491776             -13.381901               2.000000
 MO|     28              -0.478845             -13.030034               2.000000
 MO|     29              -0.433409             -11.793667               2.000000
 MO|     30              -0.429789             -11.695158               2.000000
 MO|     31              -0.428015             -11.646890               2.000000
 MO|     32              -0.427064             -11.620997               2.000000
 MO|     33              -0.420347             -11.438237               2.000000
 MO|     34              -0.392408             -10.677957               2.000000
 MO|     35              -0.390250             -10.619235               2.000000
 MO|     36              -0.388266             -10.565257               2.000000
 MO|     37              -0.372126             -10.126060               2.000000
 MO|     38              -0.369484             -10.054163               2.000000
 MO|     39              -0.346181              -9.420055               2.000000
 MO|     40              -0.335588              -9.131802               2.000000
 MO|     41              -0.327076              -8.900197               2.000000
 MO|     42              -0.316475              -8.611724               2.000000
 MO|     43              -0.307980              -8.380564               2.000000
 MO|     44              -0.295776              -8.048474               2.000000
 MO|     45              -0.245370              -6.676856               2.000000
 MO|     46              -0.242952              -6.611062               2.000000
 MO|     47              -0.226457              -6.162218               2.000000
 MO|     48              -0.209039              -5.688233               2.000000
 MO|     49              -0.071194              -1.937283               0.000000
 MO|     50              -0.048263              -1.313299               0.000000
 MO|     51              -0.046482              -1.264835               0.000000
 MO|     52              -0.035241              -0.958952               0.000000
 MO|     53              -0.016268              -0.442671               0.000000
 MO|     54              -0.014012              -0.381289               0.000000
 MO|     55              -0.005116              -0.139222               0.000000
 MO|     56               0.004890               0.133065               0.000000
 MO|     57               0.015951               0.434054               0.000000
 MO|     58               0.024075               0.655106               0.000000
 MO|     59               0.028893               0.786212               0.000000
 MO|     60               0.031959               0.869651               0.000000
 MO|     61               0.032505               0.884506               0.000000
 MO|     62               0.038363               1.043905               0.000000
 MO|     63               0.056384               1.534281               0.000000
 MO|     64               0.059650               1.623157               0.000000
 MO|     65               0.062089               1.689519               0.000000
 MO|     66               0.073677               2.004840               0.000000
 MO|     67               0.079813               2.171813               0.000000
 MO|     68               0.083342               2.267859               0.000000
 MO|     69               0.086676               2.358583               0.000000
 MO|     70               0.096648               2.629914               0.000000
 MO|     71               0.099721               2.713546               0.000000
 MO|     72               0.102309               2.783976               0.000000
 MO|     73               0.107492               2.925003               0.000000
 MO|     74               0.124649               3.391869               0.000000
 MO|     75               0.126870               3.452297               0.000000
 MO|     76               0.127749               3.476228               0.000000
 MO|     77               0.129055               3.511759               0.000000
 MO|     78               0.136483               3.713897               0.000000
 MO|     79               0.144356               3.928115               0.000000
 MO|     80               0.159338               4.335802               0.000000
 MO|     81               0.164621               4.479573               0.000000
 MO|     82               0.171406               4.664187               0.000000
 MO|     83               0.171969               4.679512               0.000000
 MO|     84               0.173212               4.713347               0.000000
 MO|     85               0.185541               5.048822               0.000000
 MO|     86               0.195054               5.307684               0.000000
 MO|     87               0.202904               5.521303               0.000000
 MO|     88               0.203359               5.533682               0.000000
 MO|     89               0.206214               5.611380               0.000000
 MO|     90               0.211884               5.765665               0.000000
 MO|     91               0.216619               5.894509               0.000000
 MO|     92               0.224641               6.112791               0.000000
 MO|     93               0.228426               6.215775               0.000000
 MO|     94               0.232003               6.313112               0.000000
 MO|     95               0.241614               6.574655               0.000000
 MO|     96               0.245861               6.690209               0.000000
 MO|     97               0.255420               6.950340               0.000000
 MO|     98               0.262748               7.149723               0.000000
 MO|     99               0.264051               7.185196               0.000000
 MO|    100               0.284646               7.745607               0.000000
 MO|    101               0.284684               7.746639               0.000000
 MO|    102               0.285315               7.763804               0.000000
 MO|    103               0.292538               7.960360               0.000000
 MO|    104               0.297954               8.107741               0.000000
 MO|    105               0.310597               8.451768               0.000000
 MO|    106               0.311455               8.475111               0.000000
 MO|    107               0.321793               8.756433               0.000000
 MO|    108               0.327032               8.898993               0.000000
 MO|    109               0.332253               9.041065               0.000000
 MO|    110               0.336505               9.156760               0.000000
 MO|    111               0.350482               9.537103               0.000000
 MO|    112               0.362576               9.866194               0.000000
 MO|    113               0.375827              10.226776               0.000000
 MO|    114               0.397295              10.810960               0.000000
 MO|    115               0.415954              11.318683               0.000000
 MO|    116               0.431323              11.736893               0.000000
 MO|    117               0.434605              11.826195               0.000000
 MO|    118               0.456689              12.427139               0.000000
 MO|    119               0.470059              12.790965               0.000000
 MO|    120               0.488020              13.279706               0.000000
 MO|    121               0.506414              13.780229               0.000000
 MO|    122               0.537146              14.616486               0.000000
 MO|    123               0.541133              14.724991               0.000000
 MO|    124               0.569211              15.489031               0.000000
 MO|    125               0.578334              15.737269               0.000000
 MO|    126               0.582915              15.861916               0.000000
 MO|    127               0.587448              15.985271               0.000000
 MO|    128               0.597945              16.270919               0.000000
 MO|    129               0.602034              16.382191               0.000000
 MO|    130               0.609352              16.581310               0.000000
 MO|    131               0.628299              17.096887               0.000000
 MO|    132               0.642358              17.479437               0.000000
 MO|    133               0.705035              19.184969               0.000000
 MO|    134               0.705245              19.190699               0.000000
 MO|    135               0.714841              19.451805               0.000000
 MO|    136               0.715525              19.470433               0.000000
 MO|    137               0.727056              19.784210               0.000000
 MO|    138               0.728233              19.816233               0.000000
 MO|    139               0.744002              20.245321               0.000000
 MO|    140               0.752880              20.486905               0.000000
 MO|    141               0.765670              20.834928               0.000000
 MO|    142               0.771216              20.985867               0.000000
 MO|    143               0.774014              21.061992               0.000000
 MO|    144               0.780224              21.230967               0.000000
 MO|    145               0.781132              21.255686               0.000000
 MO|    146               0.792644              21.568928               0.000000
 MO|    147               0.795502              21.646716               0.000000
 MO|    148               0.805806              21.927109               0.000000
 MO| Sum:                                                              96.000000
 MO| E(Fermi):           -0.081730 a.u.         -2.223991 eV
 MO| Band gap:            0.137845 a.u.          3.750950 eV

     5 Broy./Diag. 0.40E+00    0.2     0.00691435      -533.7619897008 -7.33E-02
  Decoupling Energy:                                              -0.0000176365

 MO| EIGENVALUES AND OCCUPATION NUMBERS AFTER SCF STEP 5
 MO|
 MO|  Index      Eigenvalue [a.u.]        Eigenvalue [eV]             Occupation
 MO|      1              -9.807925            -266.887220               2.000000
 MO|      2              -9.807894            -266.886376               2.000000
 MO|      3              -9.807746            -266.882352               2.000000
 MO|      4              -9.807720            -266.881635               2.000000
 MO|      5              -9.800941            -266.697160               2.000000
 MO|      6              -9.800937            -266.697069               2.000000
 MO|      7              -9.800856            -266.694849               2.000000
 MO|      8              -9.800839            -266.694397               2.000000
 MO|      9              -9.796506            -266.576481               2.000000
 MO|     10              -9.796389            -266.573314               2.000000
 MO|     11              -9.796311            -266.571167               2.000000
 MO|     12              -9.796306            -266.571039               2.000000
 MO|     13              -9.795963            -266.561700               2.000000
 MO|     14              -9.795962            -266.561688               2.000000
 MO|     15              -0.832315             -22.648453               2.000000
 MO|     16              -0.794685             -21.624483               2.000000
 MO|     17              -0.751955             -20.461747               2.000000
 MO|     18              -0.750826             -20.431006               2.000000
 MO|     19              -0.695642             -18.929389               2.000000
 MO|     20              -0.690642             -18.793325               2.000000
 MO|     21              -0.654226             -17.802408               2.000000
 MO|     22              -0.613956             -16.706603               2.000000
 MO|     23              -0.581126             -15.813252               2.000000
 MO|     24              -0.565881             -15.398406               2.000000
 MO|     25              -0.550119             -14.969510               2.000000
 MO|     26              -0.498849             -13.574373               2.000000
 MO|     27              -0.485701             -13.216592               2.000000
 MO|     28              -0.472896             -12.868158               2.000000
 MO|     29              -0.427520             -11.633423               2.000000
 MO|     30              -0.423625             -11.527421               2.000000
 MO|     31              -0.421998             -11.483158               2.000000
 MO|     32              -0.421255             -11.462919               2.000000
 MO|     33              -0.414328             -11.274445               2.000000
 MO|     34              -0.386456             -10.516011               2.000000
 MO|     35              -0.384283             -10.456880               2.000000
 MO|     36              -0.382219             -10.400696               2.000000
 MO|     37              -0.365989              -9.959063               2.000000
 MO|     38              -0.363562              -9.893037               2.000000
 MO|     39              -0.340117              -9.255054               2.000000
 MO|     40              -0.329727              -8.972319               2.000000
 MO|     41              -0.321240              -8.741373               2.000000
 MO|     42              -0.310488              -8.448812               2.000000
 MO|     43              -0.302131              -8.221412               2.000000
 MO|     44              -0.289778              -7.885259               2.000000
 MO|     45              -0.239407              -6.514599               2.000000
 MO|     46              -0.236906              -6.446529               2.000000
 MO|     47              -0.220522              -6.000706               2.000000
 MO|     48              -0.203106              -5.526809               2.000000
 MO|     49              -0.065515              -1.782765               0.000000
 MO|     50              -0.042461              -1.155418               0.000000
 MO|     51              -0.040568              -1.103921               0.000000
 MO|     52              -0.029543              -0.803898               0.000000
 MO|     53              -0.010887              -0.296251               0.000000
 MO|     54              -0.009236              -0.251322               0.000000
 MO|     55              -0.000169              -0.004594               0.000000
 MO|     56               0.010764               0.292898               0.000000
 MO|     57               0.020788               0.565664               0.000000
 MO|     58               0.029682               0.807695               0.000000
 MO|     59               0.035623               0.969358               0.000000
 MO|     60               0.036984               1.006380               0.000000
 MO|     61               0.037654               1.024626               0.000000
 MO|     62               0.045673               1.242822               0.000000
 MO|     63               0.061361               1.669722               0.000000
 MO|     64               0.064845               1.764532               0.000000
 MO|     65               0.067797               1.844858               0.000000
 MO|     66               0.080353               2.186524               0.000000
 MO|     67               0.085909               2.337712               0.000000
 MO|     68               0.088801               2.416399               0.000000
 MO|     69               0.092435               2.515282               0.000000
 MO|     70               0.102583               2.791418               0.000000
 MO|     71               0.105463               2.869782               0.000000
 MO|     72               0.107153               2.915778               0.000000
 MO|     73               0.113126               3.078322               0.000000
 MO|     74               0.130000               3.537486               0.000000
 MO|     75               0.133476               3.632070               0.000000
 MO|     76               0.134768               3.667227               0.000000
 MO|     77               0.135999               3.700732               0.000000
 MO|     78               0.142710               3.883326               0.000000
 MO|     79               0.149791               4.076008               0.000000
 MO|     80               0.164811               4.484735               0.000000
 MO|     81               0.170046               4.627190               0.000000
 MO|     82               0.176897               4.813610               0.000000
 MO|     83               0.177671               4.834666               0.000000
 MO|     84               0.179744               4.891095               0.000000
 MO|     85               0.191350               5.206901               0.000000
 MO|     86               0.200855               5.465532               0.000000
 MO|     87               0.209728               5.706988               0.000000
 MO|     88               0.210519               5.728506               0.000000
 MO|     89               0.212499               5.782397               0.000000
 MO|     90               0.217710               5.924198               0.000000
 MO|     91               0.222784               6.062262               0.000000
 MO|     92               0.230488               6.271893               0.000000
 MO|     93               0.234017               6.367937               0.000000
 MO|     94               0.239013               6.503887               0.000000
 MO|     95               0.247556               6.736337               0.000000
 MO|     96               0.251980               6.856721               0.000000
 MO|     97               0.261504               7.115896               0.000000
 MO|     98               0.268477               7.305630               0.000000
 MO|     99               0.269425               7.331417               0.000000
 MO|    100               0.290434               7.903108               0.000000
 MO|    101               0.290532               7.905772               0.000000
 MO|    102               0.291130               7.922045               0.000000
 MO|    103               0.299434               8.148008               0.000000
 MO|    104               0.304279               8.279856               0.000000
 MO|    105               0.316297               8.606875               0.000000
 MO|    106               0.317059               8.627627               0.000000
 MO|    107               0.327086               8.900461               0.000000
 MO|    108               0.332765               9.054990               0.000000
 MO|    109               0.338130               9.200986               0.000000
 MO|    110               0.342359               9.316061               0.000000
 MO|    111               0.356285               9.695009               0.000000
 MO|    112               0.368324              10.022602               0.000000
 MO|    113               0.382312              10.403249               0.000000
 MO|    114               0.403302              10.974410               0.000000
 MO|    115               0.421619              11.472830               0.000000
 MO|    116               0.437142              11.895225               0.000000
 MO|    117               0.440018              11.973496               0.000000
 MO|    118               0.462425              12.583233               0.000000
 MO|    119               0.475870              12.949070               0.000000
 MO|    120               0.493644              13.432730               0.000000
 MO|    121               0.512188              13.937353               0.000000
 MO|    122               0.543366              14.785730               0.000000
 MO|    123               0.546999              14.884589               0.000000
 MO|    124               0.575365              15.656480               0.000000
 MO|    125               0.585712              15.938039               0.000000
 MO|    126               0.588775              16.021381               0.000000
 MO|    127               0.593526              16.150656               0.000000
 MO|    128               0.603994              16.435521               0.000000
 MO|    129               0.607896              16.541700               0.000000
 MO|    130               0.617013              16.789788               0.000000
 MO|    131               0.634437              17.263900               0.000000
 MO|    132               0.648457              17.645402               0.000000
 MO|    133               0.710657              19.337973               0.000000
 MO|    134               0.712615              19.391240               0.000000
 MO|    135               0.720897              19.616592               0.000000
 MO|    136               0.721429              19.631086               0.000000
 MO|    137               0.732887              19.942883               0.000000
 MO|    138               0.734546              19.988002               0.000000
 MO|    139               0.749541              20.396049               0.000000
 MO|    140               0.759633              20.670654               0.000000
 MO|    141               0.771533              20.994482               0.000000
 MO|    142               0.777131              21.146814               0.000000
 MO|    143               0.780155              21.229099               0.000000
 MO|    144               0.786588              21.404156               0.000000
 MO|    145               0.786927              21.413370               0.000000
 MO|    146               0.798178              21.719528               0.000000
 MO|    147               0.801156              21.800572               0.000000
 MO|    148               0.811658              22.086341               0.000000
 MO| Sum:                                                              96.000000
 MO| E(Fermi):           -0.076052 a.u.         -2.069473 eV
 MO| Band gap:            0.137591 a.u.          3.744044 eV

     6 Broy./Diag. 0.40E+00    0.2     0.00319658      -533.7259176782  3.61E-02
  Decoupling Energy:                                              -0.0000219440

 MO| EIGENVALUES AND OCCUPATION NUMBERS AFTER SCF STEP 6
 MO|
 MO|  Index      Eigenvalue [a.u.]        Eigenvalue [eV]             Occupation
 MO|      1              -9.802397            -266.736801               2.000000
 MO|      2              -9.802367            -266.735958               2.000000
 MO|      3              -9.802219            -266.731936               2.000000
 MO|      4              -9.802192            -266.731217               2.000000
 MO|      5              -9.795853            -266.558703               2.000000
 MO|      6              -9.795849            -266.558613               2.000000
 MO|      7              -9.795768            -266.556397               2.000000
 MO|      8              -9.795751            -266.555943               2.000000
 MO|      9              -9.791461            -266.439216               2.000000
 MO|     10              -9.791458            -266.439119               2.000000
 MO|     11              -9.791288            -266.434500               2.000000
 MO|     12              -9.791167            -266.431214               2.000000
 MO|     13              -9.791113            -266.429738               2.000000
 MO|     14              -9.791110            -266.429664               2.000000
 MO|     15              -0.826522             -22.490801               2.000000
 MO|     16              -0.788993             -21.469582               2.000000
 MO|     17              -0.746408             -20.310803               2.000000
 MO|     18              -0.745238             -20.278966               2.000000
 MO|     19              -0.690097             -18.778482               2.000000
 MO|     20              -0.685072             -18.641769               2.000000
 MO|     21              -0.648801             -17.654770               2.000000
 MO|     22              -0.608506             -16.558283               2.000000
 MO|     23              -0.575724             -15.666258               2.000000
 MO|     24              -0.560426             -15.249955               2.000000
 MO|     25              -0.544766             -14.823825               2.000000
 MO|     26              -0.493597             -13.431467               2.000000
 MO|     27              -0.480330             -13.070443               2.000000
 MO|     28              -0.467680             -12.726229               2.000000
 MO|     29              -0.422354             -11.492830               2.000000
 MO|     30              -0.418155             -11.378573               2.000000
 MO|     31              -0.416640             -11.337356               2.000000
 MO|     32              -0.416234             -11.326310               2.000000
 MO|     33              -0.408841             -11.125119               2.000000
 MO|     34              -0.381212             -10.373298               2.000000
 MO|     35              -0.379034             -10.314031               2.000000
 MO|     36              -0.376934             -10.256901               2.000000
 MO|     37              -0.360409              -9.807227               2.000000
 MO|     38              -0.358309              -9.750075               2.000000
 MO|     39              -0.334628              -9.105694               2.000000
 MO|     40              -0.324618              -8.833303               2.000000
 MO|     41              -0.316097              -8.601437               2.000000
 MO|     42              -0.305196              -8.304807               2.000000
 MO|     43              -0.296837              -8.077339               2.000000
 MO|     44              -0.284388              -7.738583               2.000000
 MO|     45              -0.233982              -6.366968               2.000000
 MO|     46              -0.231393              -6.296527               2.000000
 MO|     47              -0.215171              -5.855091               2.000000
 MO|     48              -0.197739              -5.380758               2.000000
 MO|     49              -0.060293              -1.640662               0.000000
 MO|     50              -0.037126              -1.010253               0.000000
 MO|     51              -0.035160              -0.956765               0.000000
 MO|     52              -0.024246              -0.659765               0.000000
 MO|     53              -0.005201              -0.141532               0.000000
 MO|     54              -0.003681              -0.100157               0.000000
 MO|     55               0.005270               0.143416               0.000000
 MO|     56               0.017003               0.462671               0.000000
 MO|     57               0.026312               0.715986               0.000000
 MO|     58               0.035640               0.969807               0.000000
 MO|     59               0.041338               1.124867               0.000000
 MO|     60               0.043099               1.172780               0.000000
 MO|     61               0.043522               1.184299               0.000000
 MO|     62               0.052433               1.426782               0.000000
 MO|     63               0.066942               1.821573               0.000000
 MO|     64               0.070366               1.914748               0.000000
 MO|     65               0.073085               1.988750               0.000000
 MO|     66               0.087077               2.369486               0.000000
 MO|     67               0.091906               2.500881               0.000000
 MO|     68               0.094378               2.568165               0.000000
 MO|     69               0.096993               2.639325               0.000000
 MO|     70               0.108743               2.959047               0.000000
 MO|     71               0.111070               3.022371               0.000000
 MO|     72               0.112482               3.060798               0.000000
 MO|     73               0.119018               3.238648               0.000000
 MO|     74               0.135587               3.689502               0.000000
 MO|     75               0.139268               3.789686               0.000000
 MO|     76               0.139691               3.801190               0.000000
 MO|     77               0.142211               3.869767               0.000000
 MO|     78               0.149664               4.072569               0.000000
 MO|     79               0.155375               4.227967               0.000000
 MO|     80               0.169600               4.615055               0.000000
 MO|     81               0.175492               4.775379               0.000000
 MO|     82               0.182874               4.976267               0.000000
 MO|     83               0.183789               5.001164               0.000000
 MO|     84               0.187264               5.095722               0.000000
 MO|     85               0.197827               5.383158               0.000000
 MO|     86               0.206999               5.632736               0.000000
 MO|     87               0.217515               5.918885               0.000000
 MO|     88               0.218413               5.943328               0.000000
 MO|     89               0.219481               5.972380               0.000000
 MO|     90               0.223560               6.083379               0.000000
 MO|     91               0.228557               6.219354               0.000000
 MO|     92               0.236493               6.435293               0.000000
 MO|     93               0.239186               6.508587               0.000000
 MO|     94               0.245417               6.678123               0.000000
 MO|     95               0.254447               6.923868               0.000000
 MO|     96               0.259445               7.059858               0.000000
 MO|     97               0.267759               7.286099               0.000000
 MO|     98               0.273762               7.449437               0.000000
 MO|     99               0.275169               7.487736               0.000000
 MO|    100               0.296061               8.056216               0.000000
 MO|    101               0.296455               8.066942               0.000000
 MO|    102               0.297600               8.098108               0.000000
 MO|    103               0.305886               8.323573               0.000000
 MO|    104               0.311465               8.475397               0.000000
 MO|    105               0.322417               8.773424               0.000000
 MO|    106               0.323132               8.792881               0.000000
 MO|    107               0.332403               9.045139               0.000000
 MO|    108               0.338190               9.202629               0.000000
 MO|    109               0.344491               9.374078               0.000000
 MO|    110               0.348041               9.470684               0.000000
 MO|    111               0.362544               9.865327               0.000000
 MO|    112               0.374401              10.187974               0.000000
 MO|    113               0.389419              10.596627               0.000000
 MO|    114               0.409145              11.133413               0.000000
 MO|    115               0.427599              11.635561               0.000000
 MO|    116               0.443131              12.058217               0.000000
 MO|    117               0.445437              12.120964               0.000000
 MO|    118               0.467878              12.731599               0.000000
 MO|    119               0.481318              13.097328               0.000000
 MO|    120               0.499775              13.599578               0.000000
 MO|    121               0.518935              14.120938               0.000000
 MO|    122               0.549289              14.946914               0.000000
 MO|    123               0.552564              15.036027               0.000000
 MO|    124               0.581082              15.812057               0.000000
 MO|    125               0.591637              16.099251               0.000000
 MO|    126               0.594339              16.172797               0.000000
 MO|    127               0.599232              16.305938               0.000000
 MO|    128               0.610218              16.604869               0.000000
 MO|    129               0.614089              16.710209               0.000000
 MO|    130               0.623404              16.963689               0.000000
 MO|    131               0.640064              17.417017               0.000000
 MO|    132               0.654175              17.801000               0.000000
 MO|    133               0.716137              19.487084               0.000000
 MO|    134               0.719153              19.569142               0.000000
 MO|    135               0.726582              19.771303               0.000000
 MO|    136               0.726864              19.778984               0.000000
 MO|    137               0.738511              20.095905               0.000000
 MO|    138               0.740025              20.137091               0.000000
 MO|    139               0.754884              20.541447               0.000000
 MO|    140               0.765789              20.838181               0.000000
 MO|    141               0.777723              21.162927               0.000000
 MO|    142               0.782439              21.291259               0.000000
 MO|    143               0.786308              21.396516               0.000000
 MO|    144               0.792104              21.554253               0.000000
 MO|    145               0.792423              21.562933               0.000000
 MO|    146               0.803564              21.866085               0.000000
 MO|    147               0.806675              21.950736               0.000000
 MO|    148               0.817060              22.233323               0.000000
 MO| Sum:                                                              96.000000
 MO| E(Fermi):           -0.070830 a.u.         -1.927370 eV
 MO| Band gap:            0.137446 a.u.          3.740096 eV

     7 Broy./Diag. 0.40E+00    0.2     0.00285600      -533.7442413437 -1.83E-02
  Decoupling Energy:                                              -0.0000146619

 MO| EIGENVALUES AND OCCUPATION NUMBERS AFTER SCF STEP 7
 MO|
 MO|  Index      Eigenvalue [a.u.]        Eigenvalue [eV]             Occupation
 MO|      1              -9.796977            -266.589307               2.000000
 MO|      2              -9.796946            -266.588466               2.000000
 MO|      3              -9.796799            -266.584448               2.000000
 MO|      4              -9.796772            -266.583725               2.000000
 MO|      5              -9.790755            -266.420006               2.000000
 MO|      6              -9.790752            -266.419913               2.000000
 MO|      7              -9.790671            -266.417699               2.000000
 MO|      8              -9.790654            -266.417246               2.000000
 MO|      9              -9.786497            -266.304115               2.000000
 MO|     10              -9.786493            -266.304022               2.000000
 MO|     11              -9.786425            -266.302169               2.000000
 MO|     12              -9.786306            -266.298934               2.000000
 MO|     13              -9.786148            -266.294638               2.000000
 MO|     14              -9.786147            -266.294611               2.000000
 MO|     15              -0.821350             -22.350080               2.000000
 MO|     16              -0.783857             -21.329821               2.000000
 MO|     17              -0.741386             -20.174140               2.000000
 MO|     18              -0.740094             -20.138991               2.000000
 MO|     19              -0.685008             -18.640006               2.000000
 MO|     20              -0.679993             -18.503540               2.000000
 MO|     21              -0.643798             -17.518645               2.000000
 MO|     22              -0.603430             -16.420165               2.000000
 MO|     23              -0.570667             -15.528650               2.000000
 MO|     24              -0.555405             -15.113348               2.000000
 MO|     25              -0.539813             -14.689070               2.000000
 MO|     26              -0.488651             -13.296860               2.000000
 MO|     27              -0.475404             -12.936404               2.000000
 MO|     28              -0.462803             -12.593498               2.000000
 MO|     29              -0.417445             -11.359261               2.000000
 MO|     30              -0.413100             -11.241031               2.000000
 MO|     31              -0.411712             -11.203248               2.000000
 MO|     32              -0.411501             -11.197506               2.000000
 MO|     33              -0.403807             -10.988137               2.000000
 MO|     34              -0.376361             -10.241314               2.000000
 MO|     35              -0.374139             -10.180840               2.000000
 MO|     36              -0.371918             -10.120402               2.000000
 MO|     37              -0.355349              -9.669547               2.000000
 MO|     38              -0.353385              -9.616101               2.000000
 MO|     39              -0.329617              -8.969332               2.000000
 MO|     40              -0.319863              -8.703911               2.000000
 MO|     41              -0.311283              -8.470452               2.000000
 MO|     42              -0.300279              -8.171003               2.000000
 MO|     43              -0.291887              -7.942651               2.000000
 MO|     44              -0.279437              -7.603879               2.000000
 MO|     45              -0.228996              -6.231286               2.000000
 MO|     46              -0.226360              -6.159574               2.000000
 MO|     47              -0.210208              -5.720053               2.000000
 MO|     48              -0.192697              -5.243555               2.000000
 MO|     49              -0.055401              -1.507547               0.000000
 MO|     50              -0.032186              -0.875818               0.000000
 MO|     51              -0.030217              -0.822234               0.000000
 MO|     52              -0.019261              -0.524115               0.000000
 MO|     53               0.000692               0.018835               0.000000
 MO|     54               0.003180               0.086541               0.000000
 MO|     55               0.011122               0.302647               0.000000
 MO|     56               0.022577               0.614355               0.000000
 MO|     57               0.033357               0.907685               0.000000
 MO|     58               0.041117               1.118858               0.000000
 MO|     59               0.046940               1.277316               0.000000
 MO|     60               0.050034               1.361482               0.000000
 MO|     61               0.050516               1.374622               0.000000
 MO|     62               0.056691               1.542646               0.000000
 MO|     63               0.074072               2.015610               0.000000
 MO|     64               0.076336               2.077210               0.000000
 MO|     65               0.076836               2.090816               0.000000
 MO|     66               0.092933               2.528826               0.000000
 MO|     67               0.096029               2.613069               0.000000
 MO|     68               0.099590               2.709989               0.000000
 MO|     69               0.100905               2.745777               0.000000
 MO|     70               0.113947               3.100658               0.000000
 MO|     71               0.115887               3.153437               0.000000
 MO|     72               0.118153               3.215094               0.000000
 MO|     73               0.125891               3.425658               0.000000
 MO|     74               0.141979               3.863432               0.000000
 MO|     75               0.143204               3.896792               0.000000
 MO|     76               0.144988               3.945315               0.000000
 MO|     77               0.147787               4.021491               0.000000
 MO|     78               0.155300               4.225938               0.000000
 MO|     79               0.161734               4.400996               0.000000
 MO|     80               0.174269               4.742105               0.000000
 MO|     81               0.181925               4.950438               0.000000
 MO|     82               0.188569               5.131220               0.000000
 MO|     83               0.190687               5.188858               0.000000
 MO|     84               0.194395               5.289760               0.000000
 MO|     85               0.203609               5.540492               0.000000
 MO|     86               0.213848               5.819087               0.000000
 MO|     87               0.224994               6.122400               0.000000
 MO|     88               0.225615               6.139302               0.000000
 MO|     89               0.226121               6.153076               0.000000
 MO|     90               0.230465               6.271259               0.000000
 MO|     91               0.234082               6.369705               0.000000
 MO|     92               0.242945               6.610866               0.000000
 MO|     93               0.244651               6.657295               0.000000
 MO|     94               0.251743               6.850278               0.000000
 MO|     95               0.262527               7.143723               0.000000
 MO|     96               0.267236               7.271873               0.000000
 MO|     97               0.275523               7.497370               0.000000
 MO|     98               0.278903               7.589345               0.000000
 MO|     99               0.282497               7.687142               0.000000
 MO|    100               0.301441               8.202633               0.000000
 MO|    101               0.304036               8.273233               0.000000
 MO|    102               0.305115               8.302609               0.000000
 MO|    103               0.311249               8.469523               0.000000
 MO|    104               0.318342               8.662515               0.000000
 MO|    105               0.329180               8.957447               0.000000
 MO|    106               0.329921               8.977606               0.000000
 MO|    107               0.337769               9.191162               0.000000
 MO|    108               0.343846               9.356532               0.000000
 MO|    109               0.351758               9.571825               0.000000
 MO|    110               0.354254               9.639751               0.000000
 MO|    111               0.369470              10.053787               0.000000
 MO|    112               0.381725              10.387277               0.000000
 MO|    113               0.395992              10.775491               0.000000
 MO|    114               0.415131              11.296291               0.000000
 MO|    115               0.434005              11.809876               0.000000
 MO|    116               0.449795              12.239535               0.000000
 MO|    117               0.452473              12.312410               0.000000
 MO|    118               0.473049              12.872309               0.000000
 MO|    119               0.486802              13.246547               0.000000
 MO|    120               0.507111              13.799192               0.000000
 MO|    121               0.526913              14.338028               0.000000
 MO|    122               0.555724              15.122018               0.000000
 MO|    123               0.557898              15.181185               0.000000
 MO|    124               0.586834              15.968558               0.000000
 MO|    125               0.596776              16.239110               0.000000
 MO|    126               0.599953              16.325561               0.000000
 MO|    127               0.604066              16.437465               0.000000
 MO|    128               0.617151              16.793537               0.000000
 MO|    129               0.620589              16.887077               0.000000
 MO|    130               0.628169              17.093338               0.000000
 MO|    131               0.645016              17.551780               0.000000
 MO|    132               0.660145              17.963455               0.000000
 MO|    133               0.721145              19.623344               0.000000
 MO|    134               0.723999              19.701005               0.000000
 MO|    135               0.731835              19.914256               0.000000
 MO|    136               0.731867              19.915108               0.000000
 MO|    137               0.743446              20.230205               0.000000
 MO|    138               0.744865              20.268810               0.000000
 MO|    139               0.759993              20.680459               0.000000
 MO|    140               0.770766              20.973614               0.000000
 MO|    141               0.784214              21.339535               0.000000
 MO|    142               0.787525              21.429644               0.000000
 MO|    143               0.793883              21.602664               0.000000
 MO|    144               0.796938              21.685799               0.000000
 MO|    145               0.797588              21.703486               0.000000
 MO|    146               0.808847              22.009857               0.000000
 MO|    147               0.811635              22.085700               0.000000
 MO|    148               0.821952              22.366453               0.000000
 MO| Sum:                                                              96.000000
 MO| E(Fermi):           -0.065938 a.u.         -1.794255 eV
 MO| Band gap:            0.137296 a.u.          3.736008 eV

     8 Broy./Diag. 0.40E+00    0.2     0.00257398      -533.8066123558 -6.24E-02
  Decoupling Energy:                                              -0.0000063880

 MO| EIGENVALUES AND OCCUPATION NUMBERS AFTER SCF STEP 8
 MO|
 MO|  Index      Eigenvalue [a.u.]        Eigenvalue [eV]             Occupation
 MO|      1              -9.793985            -266.507898               2.000000
 MO|      2              -9.793955            -266.507058               2.000000
 MO|      3              -9.793807            -266.503040               2.000000
 MO|      4              -9.793780            -266.502317               2.000000
 MO|      5              -9.787986            -266.344656               2.000000
 MO|      6              -9.787983            -266.344567               2.000000
 MO|      7              -9.787902            -266.342355               2.000000
 MO|      8              -9.787885            -266.341900               2.000000
 MO|      9              -9.783818            -266.231222               2.000000
 MO|     10              -9.783814            -266.231122               2.000000
 MO|     11              -9.783477            -266.221935               2.000000
 MO|     12              -9.783470            -266.221745               2.000000
 MO|     13              -9.783309            -266.217384               2.000000
 MO|     14              -9.783199            -266.214370               2.000000
 MO|     15              -0.818362             -22.268755               2.000000
 MO|     16              -0.781006             -21.252262               2.000000
 MO|     17              -0.738540             -20.096693               2.000000
 MO|     18              -0.737014             -20.055174               2.000000
 MO|     19              -0.682117             -18.561358               2.000000
 MO|     20              -0.677122             -18.425430               2.000000
 MO|     21              -0.640907             -17.439973               2.000000
 MO|     22              -0.600483             -16.339974               2.000000
 MO|     23              -0.567646             -15.446421               2.000000
 MO|     24              -0.552521             -15.034856               2.000000
 MO|     25              -0.536938             -14.610818               2.000000
 MO|     26              -0.485762             -13.218264               2.000000
 MO|     27              -0.472536             -12.858364               2.000000
 MO|     28              -0.459902             -12.514583               2.000000
 MO|     29              -0.414394             -11.276228               2.000000
 MO|     30              -0.409977             -11.156034               2.000000
 MO|     31              -0.408925             -11.127422               2.000000
 MO|     32              -0.408616             -11.119004               2.000000
 MO|     33              -0.400961             -10.910699               2.000000
 MO|     34              -0.373530             -10.164275               2.000000
 MO|     35              -0.371200             -10.100870               2.000000
 MO|     36              -0.368729             -10.033631               2.000000
 MO|     37              -0.352474              -9.591312               2.000000
 MO|     38              -0.350513              -9.537948               2.000000
 MO|     39              -0.326708              -8.890189               2.000000
 MO|     40              -0.317097              -8.628650               2.000000
 MO|     41              -0.308456              -8.393513               2.000000
 MO|     42              -0.297388              -8.092336               2.000000
 MO|     43              -0.288970              -7.863283               2.000000
 MO|     44              -0.276592              -7.526453               2.000000
 MO|     45              -0.226108              -6.152712               2.000000
 MO|     46              -0.223444              -6.080233               2.000000
 MO|     47              -0.207309              -5.641162               2.000000
 MO|     48              -0.189661              -5.160929               2.000000
 MO|     49              -0.052728              -1.434792               0.000000
 MO|     50              -0.029447              -0.801282               0.000000
 MO|     51              -0.027427              -0.746339               0.000000
 MO|     52              -0.016546              -0.450243               0.000000
 MO|     53               0.001466               0.039892               0.000000
 MO|     54               0.004210               0.114570               0.000000
 MO|     55               0.011670               0.317552               0.000000
 MO|     56               0.022857               0.621964               0.000000
 MO|     57               0.033820               0.920276               0.000000
 MO|     58               0.042707               1.162115               0.000000
 MO|     59               0.047429               1.290612               0.000000
 MO|     60               0.050483               1.373707               0.000000
 MO|     61               0.050724               1.380276               0.000000
 MO|     62               0.056561               1.539106               0.000000
 MO|     63               0.074798               2.035351               0.000000
 MO|     64               0.076371               2.078169               0.000000
 MO|     65               0.076900               2.092567               0.000000
 MO|     66               0.093440               2.542642               0.000000
 MO|     67               0.095692               2.603920               0.000000
 MO|     68               0.100619               2.737973               0.000000
 MO|     69               0.102011               2.775849               0.000000
 MO|     70               0.114554               3.117168               0.000000
 MO|     71               0.117109               3.186684               0.000000
 MO|     72               0.118697               3.229904               0.000000
 MO|     73               0.126315               3.437205               0.000000
 MO|     74               0.143181               3.896151               0.000000
 MO|     75               0.144235               3.924830               0.000000
 MO|     76               0.144886               3.942557               0.000000
 MO|     77               0.147748               4.020438               0.000000
 MO|     78               0.155910               4.242528               0.000000
 MO|     79               0.162653               4.426025               0.000000
 MO|     80               0.175558               4.777163               0.000000
 MO|     81               0.183135               4.983355               0.000000
 MO|     82               0.188978               5.142358               0.000000
 MO|     83               0.192717               5.244109               0.000000
 MO|     84               0.195429               5.317901               0.000000
 MO|     85               0.203690               5.542695               0.000000
 MO|     86               0.214991               5.850214               0.000000
 MO|     87               0.224814               6.117510               0.000000
 MO|     88               0.226673               6.168090               0.000000
 MO|     89               0.226992               6.176769               0.000000
 MO|     90               0.232458               6.325501               0.000000
 MO|     91               0.236317               6.430509               0.000000
 MO|     92               0.245173               6.671490               0.000000
 MO|     93               0.246170               6.698633               0.000000
 MO|     94               0.251938               6.855581               0.000000
 MO|     95               0.264103               7.186606               0.000000
 MO|     96               0.268711               7.311990               0.000000
 MO|     97               0.277415               7.548855               0.000000
 MO|     98               0.280433               7.630964               0.000000
 MO|     99               0.284249               7.734798               0.000000
 MO|    100               0.302400               8.228724               0.000000
 MO|    101               0.305679               8.317937               0.000000
 MO|    102               0.307014               8.354269               0.000000
 MO|    103               0.311122               8.466049               0.000000
 MO|    104               0.320108               8.710592               0.000000
 MO|    105               0.330834               9.002457               0.000000
 MO|    106               0.331832               9.029621               0.000000
 MO|    107               0.339885               9.248737               0.000000
 MO|    108               0.345917               9.412886               0.000000
 MO|    109               0.353105               9.608477               0.000000
 MO|    110               0.356010               9.687518               0.000000
 MO|    111               0.370955              10.094192               0.000000
 MO|    112               0.382193              10.399998               0.000000
 MO|    113               0.395994              10.775558               0.000000
 MO|    114               0.417553              11.362183               0.000000
 MO|    115               0.435892              11.861226               0.000000
 MO|    116               0.451896              12.296715               0.000000
 MO|    117               0.453812              12.348851               0.000000
 MO|    118               0.475416              12.936740               0.000000
 MO|    119               0.488666              13.297290               0.000000
 MO|    120               0.508421              13.834848               0.000000
 MO|    121               0.528176              14.372410               0.000000
 MO|    122               0.557407              15.167821               0.000000
 MO|    123               0.560573              15.253966               0.000000
 MO|    124               0.589016              16.027930               0.000000
 MO|    125               0.598593              16.288552               0.000000
 MO|    126               0.602644              16.398764               0.000000
 MO|    127               0.606050              16.491456               0.000000
 MO|    128               0.618817              16.838865               0.000000
 MO|    129               0.622558              16.940657               0.000000
 MO|    130               0.630069              17.145056               0.000000
 MO|    131               0.647402              17.616714               0.000000
 MO|    132               0.662535              18.028486               0.000000
 MO|    133               0.723323              19.682618               0.000000
 MO|    134               0.725522              19.742455               0.000000
 MO|    135               0.733849              19.969054               0.000000
 MO|    136               0.734366              19.983103               0.000000
 MO|    137               0.745573              20.288074               0.000000
 MO|    138               0.746990              20.326635               0.000000
 MO|    139               0.762275              20.742570               0.000000
 MO|    140               0.772930              21.032508               0.000000
 MO|    141               0.786160              21.392493               0.000000
 MO|    142               0.789504              21.483485               0.000000
 MO|    143               0.795630              21.650187               0.000000
 MO|    144               0.799261              21.748994               0.000000
 MO|    145               0.799759              21.762547               0.000000
 MO|    146               0.811417              22.079780               0.000000
 MO|    147               0.813814              22.145012               0.000000
 MO|    148               0.824485              22.435390               0.000000
 MO| Sum:                                                              96.000000
 MO| E(Fermi):           -0.063264 a.u.         -1.721500 eV
 MO| Band gap:            0.136933 a.u.          3.726137 eV

     9 Broy./Diag. 0.40E+00    0.2     0.00108306      -533.8465676314 -4.00E-02
  Decoupling Energy:                                              -0.0000051574

 MO| EIGENVALUES AND OCCUPATION NUMBERS AFTER SCF STEP 9
 MO|
 MO|  Index      Eigenvalue [a.u.]        Eigenvalue [eV]             Occupation
 MO|      1              -9.793778            -266.502259               2.000000
 MO|      2              -9.793747            -266.501417               2.000000
 MO|      3              -9.793600            -266.497397               2.000000
 MO|      4              -9.793573            -266.496677               2.000000
 MO|      5              -9.787653            -266.335576               2.000000
 MO|      6              -9.787650            -266.335489               2.000000
 MO|      7              -9.787568            -266.333277               2.000000
 MO|      8              -9.787552            -266.332821               2.000000
 MO|      9              -9.783486            -266.222203               2.000000
 MO|     10              -9.783483            -266.222102               2.000000
 MO|     11              -9.783142            -266.212843               2.000000
 MO|     12              -9.783138            -266.212726               2.000000
 MO|     13              -9.782794            -266.203360               2.000000
 MO|     14              -9.782680            -266.200272               2.000000
 MO|     15              -0.817959             -22.257799               2.000000
 MO|     16              -0.780661             -21.242866               2.000000
 MO|     17              -0.738153             -20.086170               2.000000
 MO|     18              -0.736586             -20.043525               2.000000
 MO|     19              -0.681748             -18.551318               2.000000
 MO|     20              -0.676763             -18.415655               2.000000
 MO|     21              -0.640509             -17.429143               2.000000
 MO|     22              -0.600109             -16.329805               2.000000
 MO|     23              -0.567226             -15.434994               2.000000
 MO|     24              -0.552145             -15.024632               2.000000
 MO|     25              -0.536535             -14.599864               2.000000
 MO|     26              -0.485381             -13.207884               2.000000
 MO|     27              -0.472138             -12.847520               2.000000
 MO|     28              -0.459476             -12.502972               2.000000
 MO|     29              -0.413916             -11.263235               2.000000
 MO|     30              -0.409477             -11.142434               2.000000
 MO|     31              -0.408563             -11.117564               2.000000
 MO|     32              -0.408159             -11.106560               2.000000
 MO|     33              -0.400612             -10.901198               2.000000
 MO|     34              -0.373124             -10.153212               2.000000
 MO|     35              -0.370758             -10.088825               2.000000
 MO|     36              -0.368207             -10.019410               2.000000
 MO|     37              -0.352112              -9.581464               2.000000
 MO|     38              -0.350124              -9.527356               2.000000
 MO|     39              -0.326280              -8.878519               2.000000
 MO|     40              -0.316704              -8.617964               2.000000
 MO|     41              -0.308048              -8.382413               2.000000
 MO|     42              -0.296949              -8.080389               2.000000
 MO|     43              -0.288574              -7.852508               2.000000
 MO|     44              -0.276220              -7.516325               2.000000
 MO|     45              -0.225687              -6.141244               2.000000
 MO|     46              -0.223030              -6.068946               2.000000
 MO|     47              -0.206880              -5.629480               2.000000
 MO|     48              -0.189213              -5.148761               2.000000
 MO|     49              -0.052443              -1.427059               0.000000
 MO|     50              -0.029126              -0.792546               0.000000
 MO|     51              -0.027080              -0.736886               0.000000
 MO|     52              -0.016312              -0.443883               0.000000
 MO|     53              -0.000120              -0.003257               0.000000
 MO|     54               0.002485               0.067618               0.000000
 MO|     55               0.010093               0.274646               0.000000
 MO|     56               0.021064               0.573175               0.000000
 MO|     57               0.031788               0.865002               0.000000
 MO|     58               0.041867               1.139260               0.000000
 MO|     59               0.045612               1.241177               0.000000
 MO|     60               0.048439               1.318091               0.000000
 MO|     61               0.048593               1.322288               0.000000
 MO|     62               0.054649               1.487076               0.000000
 MO|     63               0.072984               1.985991               0.000000
 MO|     64               0.074600               2.029970               0.000000
 MO|     65               0.075250               2.047669               0.000000
 MO|     66               0.091502               2.489902               0.000000
 MO|     67               0.093815               2.552844               0.000000
 MO|     68               0.099393               2.704620               0.000000
 MO|     69               0.101482               2.761453               0.000000
 MO|     70               0.113112               3.077923               0.000000
 MO|     71               0.116395               3.167275               0.000000
 MO|     72               0.117218               3.189652               0.000000
 MO|     73               0.124207               3.379832               0.000000
 MO|     74               0.141950               3.862650               0.000000
 MO|     75               0.142859               3.887381               0.000000
 MO|     76               0.143683               3.909811               0.000000
 MO|     77               0.145434               3.957471               0.000000
 MO|     78               0.154212               4.196334               0.000000
 MO|     79               0.161155               4.385255               0.000000
 MO|     80               0.174946               4.760534               0.000000
 MO|     81               0.181868               4.948889               0.000000
 MO|     82               0.187199               5.093936               0.000000
 MO|     83               0.191851               5.220530               0.000000
 MO|     84               0.193672               5.270081               0.000000
 MO|     85               0.201717               5.489002               0.000000
 MO|     86               0.213606               5.812513               0.000000
 MO|     87               0.221910               6.038480               0.000000
 MO|     88               0.224729               6.115188               0.000000
 MO|     89               0.225211               6.128308               0.000000
 MO|     90               0.231656               6.303680               0.000000
 MO|     91               0.236125               6.425301               0.000000
 MO|     92               0.244627               6.656649               0.000000
 MO|     93               0.245477               6.679771               0.000000
 MO|     94               0.249724               6.795348               0.000000
 MO|     95               0.262661               7.147376               0.000000
 MO|     96               0.267044               7.266649               0.000000
 MO|     97               0.276219               7.516291               0.000000
 MO|     98               0.279746               7.612285               0.000000
 MO|     99               0.283024               7.701482               0.000000
 MO|    100               0.301326               8.199493               0.000000
 MO|    101               0.304560               8.287493               0.000000
 MO|    102               0.305747               8.319800               0.000000
 MO|    103               0.308920               8.406136               0.000000
 MO|    104               0.318924               8.678366               0.000000
 MO|    105               0.329811               8.974611               0.000000
 MO|    106               0.330970               9.006164               0.000000
 MO|    107               0.339514               9.238639               0.000000
 MO|    108               0.345495               9.401400               0.000000
 MO|    109               0.351774               9.572249               0.000000
 MO|    110               0.355166               9.664554               0.000000
 MO|    111               0.369762              10.061728               0.000000
 MO|    112               0.380269              10.347650               0.000000
 MO|    113               0.393513              10.708035               0.000000
 MO|    114               0.417276              11.354645               0.000000
 MO|    115               0.435073              11.838946               0.000000
 MO|    116               0.451251              12.279165               0.000000
 MO|    117               0.452749              12.319914               0.000000
 MO|    118               0.475345              12.934783               0.000000
 MO|    119               0.488283              13.286862               0.000000
 MO|    120               0.507046              13.797418               0.000000
 MO|    121               0.526363              14.323076               0.000000
 MO|    122               0.556423              15.141052               0.000000
 MO|    123               0.560674              15.256720               0.000000
 MO|    124               0.588733              16.020249               0.000000
 MO|    125               0.597901              16.269722               0.000000
 MO|    126               0.602778              16.402434               0.000000
 MO|    127               0.605796              16.484553               0.000000
 MO|    128               0.617754              16.809942               0.000000
 MO|    129               0.621770              16.919222               0.000000
 MO|    130               0.629533              17.130468               0.000000
 MO|    131               0.647383              17.616181               0.000000
 MO|    132               0.662315              18.022510               0.000000
 MO|    133               0.723194              19.679116               0.000000
 MO|    134               0.724688              19.719774               0.000000
 MO|    135               0.733438              19.957852               0.000000
 MO|    136               0.734481              19.986232               0.000000
 MO|    137               0.745390              20.283104               0.000000
 MO|    138               0.746904              20.324278               0.000000
 MO|    139               0.762213              20.740877               0.000000
 MO|    140               0.772624              21.024169               0.000000
 MO|    141               0.785421              21.372396               0.000000
 MO|    142               0.789293              21.477752               0.000000
 MO|    143               0.794502              21.619496               0.000000
 MO|    144               0.798660              21.732642               0.000000
 MO|    145               0.800151              21.773205               0.000000
 MO|    146               0.811512              22.082368               0.000000
 MO|    147               0.813680              22.141369               0.000000
 MO|    148               0.824632              22.439372               0.000000
 MO| Sum:                                                              96.000000
 MO| E(Fermi):           -0.062980 a.u.         -1.713767 eV
 MO| Band gap:            0.136770 a.u.          3.721702 eV

    10 Broy./Diag. 0.40E+00    0.3     0.00100506      -533.8450514501  1.52E-03
  Decoupling Energy:                                              -0.0000068483

 MO| EIGENVALUES AND OCCUPATION NUMBERS AFTER SCF STEP 10
 MO|
 MO|  Index      Eigenvalue [a.u.]        Eigenvalue [eV]             Occupation
 MO|      1              -9.793103            -266.483886               2.000000
 MO|      2              -9.793072            -266.483044               2.000000
 MO|      3              -9.792924            -266.479024               2.000000
 MO|      4              -9.792898            -266.478303               2.000000
 MO|      5              -9.786926            -266.315792               2.000000
 MO|      6              -9.786922            -266.315705               2.000000
 MO|      7              -9.786841            -266.313492               2.000000
 MO|      8              -9.786824            -266.313037               2.000000
 MO|      9              -9.782774            -266.202829               2.000000
 MO|     10              -9.782771            -266.202728               2.000000
 MO|     11              -9.782431            -266.193485               2.000000
 MO|     12              -9.782426            -266.193352               2.000000
 MO|     13              -9.782149            -266.185802               2.000000
 MO|     14              -9.782036            -266.182728               2.000000
 MO|     15              -0.817301             -22.239886               2.000000
 MO|     16              -0.780015             -21.225291               2.000000
 MO|     17              -0.737511             -20.068685               2.000000
 MO|     18              -0.735956             -20.026382               2.000000
 MO|     19              -0.681109             -18.533906               2.000000
 MO|     20              -0.676123             -18.398246               2.000000
 MO|     21              -0.639876             -17.411914               2.000000
 MO|     22              -0.599491             -16.312972               2.000000
 MO|     23              -0.566598             -15.417918               2.000000
 MO|     24              -0.551515             -15.007499               2.000000
 MO|     25              -0.535892             -14.582361               2.000000
 MO|     26              -0.484768             -13.191206               2.000000
 MO|     27              -0.471511             -12.830465               2.000000
 MO|     28              -0.458852             -12.486003               2.000000
 MO|     29              -0.413298             -11.246414               2.000000
 MO|     30              -0.408826             -11.124718               2.000000
 MO|     31              -0.407935             -11.100485               2.000000
 MO|     32              -0.407537             -11.089637               2.000000
 MO|     33              -0.399978             -10.883957               2.000000
 MO|     34              -0.372495             -10.136093               2.000000
 MO|     35              -0.370127             -10.071676               2.000000
 MO|     36              -0.367575             -10.002216               2.000000
 MO|     37              -0.351475              -9.564117               2.000000
 MO|     38              -0.349506              -9.510544               2.000000
 MO|     39              -0.325631              -8.860870               2.000000
 MO|     40              -0.316088              -8.601191               2.000000
 MO|     41              -0.307421              -8.365346               2.000000
 MO|     42              -0.296321              -8.063300               2.000000
 MO|     43              -0.287950              -7.835515               2.000000
 MO|     44              -0.275592              -7.499235               2.000000
 MO|     45              -0.225049              -6.123904               2.000000
 MO|     46              -0.222389              -6.051513               2.000000
 MO|     47              -0.206248              -5.612302               2.000000
 MO|     48              -0.188586              -5.131675               2.000000
 MO|     49              -0.051984              -1.414558               0.000000
 MO|     50              -0.028598              -0.778193               0.000000
 MO|     51              -0.026515              -0.721510               0.000000
 MO|     52              -0.015904              -0.432780               0.000000
 MO|     53              -0.001590              -0.043276               0.000000
 MO|     54               0.000802               0.021828               0.000000
 MO|     55               0.008638               0.235055               0.000000
 MO|     56               0.019354               0.526642               0.000000
 MO|     57               0.029816               0.811340               0.000000
 MO|     58               0.041099               1.118356               0.000000
 MO|     59               0.043956               1.196098               0.000000
 MO|     60               0.046387               1.262243               0.000000
 MO|     61               0.046476               1.264678               0.000000
 MO|     62               0.052998               1.442147               0.000000
 MO|     63               0.071039               1.933072               0.000000
 MO|     64               0.073206               1.992046               0.000000
 MO|     65               0.073797               2.008113               0.000000
 MO|     66               0.089490               2.435142               0.000000
 MO|     67               0.092218               2.509384               0.000000
 MO|     68               0.098361               2.676531               0.000000
 MO|     69               0.101095               2.750942               0.000000
 MO|     70               0.111909               3.045200               0.000000
 MO|     71               0.115993               3.156340               0.000000
 MO|     72               0.115997               3.156444               0.000000
 MO|     73               0.122036               3.320780               0.000000
 MO|     74               0.140712               3.828980               0.000000
 MO|     75               0.141154               3.840997               0.000000
 MO|     76               0.143204               3.896770               0.000000
 MO|     77               0.143308               3.899615               0.000000
 MO|     78               0.152589               4.152166               0.000000
 MO|     79               0.159685               4.345257               0.000000
 MO|     80               0.174305               4.743090               0.000000
 MO|     81               0.180536               4.912643               0.000000
 MO|     82               0.185596               5.050335               0.000000
 MO|     83               0.190885               5.194236               0.000000
 MO|     84               0.191728               5.217176               0.000000
 MO|     85               0.200008               5.442493               0.000000
 MO|     86               0.212125               5.772224               0.000000
 MO|     87               0.218987               5.958942               0.000000
 MO|     88               0.222249               6.047707               0.000000
 MO|     89               0.223095               6.070722               0.000000
 MO|     90               0.230854               6.281867               0.000000
 MO|     91               0.236195               6.427190               0.000000
 MO|     92               0.244124               6.642944               0.000000
 MO|     93               0.244730               6.659434               0.000000
 MO|     94               0.247522               6.735418               0.000000
 MO|     95               0.260842               7.097878               0.000000
 MO|     96               0.265173               7.215730               0.000000
 MO|     97               0.274759               7.476574               0.000000
 MO|     98               0.279162               7.596380               0.000000
 MO|     99               0.281831               7.669011               0.000000
 MO|    100               0.300246               8.170117               0.000000
 MO|    101               0.303161               8.249427               0.000000
 MO|    102               0.304247               8.278978               0.000000
 MO|    103               0.306973               8.353163               0.000000
 MO|    104               0.317656               8.643865               0.000000
 MO|    105               0.328813               8.947456               0.000000
 MO|    106               0.330042               8.980913               0.000000
 MO|    107               0.339313               9.233187               0.000000
 MO|    108               0.345092               9.390443               0.000000
 MO|    109               0.350459               9.536486               0.000000
 MO|    110               0.354361               9.642662               0.000000
 MO|    111               0.368615              10.030532               0.000000
 MO|    112               0.378295              10.293936               0.000000
 MO|    113               0.391132              10.643230               0.000000
 MO|    114               0.417093              11.349667               0.000000
 MO|    115               0.434504              11.823464               0.000000
 MO|    116               0.450455              12.257493               0.000000
 MO|    117               0.451281              12.279987               0.000000
 MO|    118               0.475456              12.937826               0.000000
 MO|    119               0.488021              13.279728               0.000000
 MO|    120               0.505658              13.759645               0.000000
 MO|    121               0.524342              14.268059               0.000000
 MO|    122               0.555410              15.113469               0.000000
 MO|    123               0.560916              15.263310               0.000000
 MO|    124               0.588576              16.015960               0.000000
 MO|    125               0.597247              16.251914               0.000000
 MO|    126               0.603061              16.410127               0.000000
 MO|    127               0.605769              16.483814               0.000000
 MO|    128               0.616806              16.784141               0.000000
 MO|    129               0.621161              16.902651               0.000000
 MO|    130               0.628990              17.115685               0.000000
 MO|    131               0.647639              17.623156               0.000000
 MO|    132               0.662270              18.021295               0.000000
 MO|    133               0.723256              19.680804               0.000000
 MO|    134               0.724024              19.701692               0.000000
 MO|    135               0.733132              19.949537               0.000000
 MO|    136               0.734858              19.996502               0.000000
 MO|    137               0.745416              20.283796               0.000000
 MO|    138               0.747088              20.329303               0.000000
 MO|    139               0.762309              20.743493               0.000000
 MO|    140               0.772371              21.017284               0.000000
 MO|    141               0.784192              21.338941               0.000000
 MO|    142               0.789118              21.473003               0.000000
 MO|    143               0.793494              21.592080               0.000000
 MO|    144               0.798090              21.717122               0.000000
 MO|    145               0.800697              21.788084               0.000000
 MO|    146               0.811758              22.089055               0.000000
 MO|    147               0.813738              22.142935               0.000000
 MO|    148               0.824911              22.446968               0.000000
 MO| Sum:                                                              96.000000
 MO| E(Fermi):           -0.062520 a.u.         -1.701266 eV
 MO| Band gap:            0.136602 a.u.          3.717117 eV

    11 Broy./Diag. 0.40E+00    0.2     0.00104549      -533.8359010796  9.15E-03
  Decoupling Energy:                                              -0.0000083524

 MO| EIGENVALUES AND OCCUPATION NUMBERS AFTER SCF STEP 11
 MO|
 MO|  Index      Eigenvalue [a.u.]        Eigenvalue [eV]             Occupation
 MO|      1              -9.792854            -266.477115               2.000000
 MO|      2              -9.792823            -266.476273               2.000000
 MO|      3              -9.792676            -266.472253               2.000000
 MO|      4              -9.792649            -266.471533               2.000000
 MO|      5              -9.786702            -266.309702               2.000000
 MO|      6              -9.786699            -266.309615               2.000000
 MO|      7              -9.786617            -266.307402               2.000000
 MO|      8              -9.786601            -266.306947               2.000000
 MO|      9              -9.782554            -266.196827               2.000000
 MO|     10              -9.782550            -266.196726               2.000000
 MO|     11              -9.782210            -266.187473               2.000000
 MO|     12              -9.782206            -266.187350               2.000000
 MO|     13              -9.781888            -266.178704               2.000000
 MO|     14              -9.781775            -266.175621               2.000000
 MO|     15              -0.817123             -22.235060               2.000000
 MO|     16              -0.779852             -21.220849               2.000000
 MO|     17              -0.737342             -20.064095               2.000000
 MO|     18              -0.735748             -20.020728               2.000000
 MO|     19              -0.680924             -18.528883               2.000000
 MO|     20              -0.675945             -18.393398               2.000000
 MO|     21              -0.639686             -17.406733               2.000000
 MO|     22              -0.599289             -16.307483               2.000000
 MO|     23              -0.566384             -15.412095               2.000000
 MO|     24              -0.551321             -15.002209               2.000000
 MO|     25              -0.535692             -14.576927               2.000000
 MO|     26              -0.484556             -13.185449               2.000000
 MO|     27              -0.471314             -12.825113               2.000000
 MO|     28              -0.458642             -12.480272               2.000000
 MO|     29              -0.413064             -11.240035               2.000000
 MO|     30              -0.408607             -11.118764               2.000000
 MO|     31              -0.407750             -11.095436               2.000000
 MO|     32              -0.407309             -11.083434               2.000000
 MO|     33              -0.399788             -10.878792               2.000000
 MO|     34              -0.372293             -10.130621               2.000000
 MO|     35              -0.369914             -10.065878               2.000000
 MO|     36              -0.367327              -9.995483               2.000000
 MO|     37              -0.351290              -9.559081               2.000000
 MO|     38              -0.349299              -9.504918               2.000000
 MO|     39              -0.325463              -8.856306               2.000000
 MO|     40              -0.315883              -8.595626               2.000000
 MO|     41              -0.307209              -8.359576               2.000000
 MO|     42              -0.296143              -8.058450               2.000000
 MO|     43              -0.287734              -7.829654               2.000000
 MO|     44              -0.275393              -7.493834               2.000000
 MO|     45              -0.224880              -6.119308               2.000000
 MO|     46              -0.222225              -6.047037               2.000000
 MO|     47              -0.206072              -5.607507               2.000000
 MO|     48              -0.188384              -5.126181               2.000000
 MO|     49              -0.051905              -1.412403               0.000000
 MO|     50              -0.028488              -0.775186               0.000000
 MO|     51              -0.026382              -0.717900               0.000000
 MO|     52              -0.015844              -0.431148               0.000000
 MO|     53              -0.002688              -0.073144               0.000000
 MO|     54              -0.000474              -0.012886               0.000000
 MO|     55               0.007551               0.205483               0.000000
 MO|     56               0.018064               0.491552               0.000000
 MO|     57               0.028332               0.770960               0.000000
 MO|     58               0.040364               1.098370               0.000000
 MO|     59               0.042753               1.163355               0.000000
 MO|     60               0.044795               1.218930               0.000000
 MO|     61               0.044847               1.220359               0.000000
 MO|     62               0.051840               1.410632               0.000000
 MO|     63               0.069395               1.888335               0.000000
 MO|     64               0.072307               1.967564               0.000000
 MO|     65               0.072777               1.980352               0.000000
 MO|     66               0.087848               2.390474               0.000000
 MO|     67               0.091110               2.479240               0.000000
 MO|     68               0.097567               2.654942               0.000000
 MO|     69               0.100663               2.739191               0.000000
 MO|     70               0.110986               3.020088               0.000000
 MO|     71               0.115166               3.133830               0.000000
 MO|     72               0.115575               3.144955               0.000000
 MO|     73               0.120325               3.274215               0.000000
 MO|     74               0.139635               3.799668               0.000000
 MO|     75               0.139994               3.809435               0.000000
 MO|     76               0.141783               3.858104               0.000000
 MO|     77               0.142636               3.881322               0.000000
 MO|     78               0.151243               4.115539               0.000000
 MO|     79               0.158489               4.312702               0.000000
 MO|     80               0.173549               4.722504               0.000000
 MO|     81               0.179321               4.879566               0.000000
 MO|     82               0.184400               5.017788               0.000000
 MO|     83               0.189825               5.165398               0.000000
 MO|     84               0.189989               5.169855               0.000000
 MO|     85               0.198757               5.408463               0.000000
 MO|     86               0.210776               5.735497               0.000000
 MO|     87               0.216795               5.899282               0.000000
 MO|     88               0.219864               5.982791               0.000000
 MO|     89               0.221132               6.017319               0.000000
 MO|     90               0.229990               6.258342               0.000000
 MO|     91               0.236044               6.423094               0.000000
 MO|     92               0.243483               6.625498               0.000000
 MO|     93               0.243896               6.636736               0.000000
 MO|     94               0.245794               6.688408               0.000000
 MO|     95               0.258995               7.047605               0.000000
 MO|     96               0.263499               7.170184               0.000000
 MO|     97               0.273200               7.434161               0.000000
 MO|     98               0.278551               7.579751               0.000000
 MO|     99               0.280785               7.640535               0.000000
 MO|    100               0.299218               8.142147               0.000000
 MO|    101               0.301667               8.208786               0.000000
 MO|    102               0.302739               8.237951               0.000000
 MO|    103               0.305606               8.315959               0.000000
 MO|    104               0.316445               8.610904               0.000000
 MO|    105               0.327862               8.921584               0.000000
 MO|    106               0.329090               8.955006               0.000000
 MO|    107               0.338999               9.224630               0.000000
 MO|    108               0.344430               9.372413               0.000000
 MO|    109               0.349269               9.504096               0.000000
 MO|    110               0.353597               9.621859               0.000000
 MO|    111               0.367554              10.001643               0.000000
 MO|    112               0.376627              10.248537               0.000000
 MO|    113               0.389350              10.594765               0.000000
 MO|    114               0.416654              11.337740               0.000000
 MO|    115               0.433973              11.808995               0.000000
 MO|    116               0.449397              12.228712               0.000000
 MO|    117               0.449409              12.229048               0.000000
 MO|    118               0.475291              12.933316               0.000000
 MO|    119               0.487479              13.264988               0.000000
 MO|    120               0.504359              13.724298               0.000000
 MO|    121               0.522576              14.220003               0.000000
 MO|    122               0.554386              15.085600               0.000000
 MO|    123               0.560761              15.259085               0.000000
 MO|    124               0.588166              16.004817               0.000000
 MO|    125               0.596503              16.231670               0.000000
 MO|    126               0.602862              16.404705               0.000000
 MO|    127               0.605552              16.477903               0.000000
 MO|    128               0.615904              16.759605               0.000000
 MO|    129               0.620509              16.884899               0.000000
 MO|    130               0.628293              17.096731               0.000000
 MO|    131               0.647580              17.621540               0.000000
 MO|    132               0.661990              18.013664               0.000000
 MO|    133               0.723084              19.676105               0.000000
 MO|    134               0.723379              19.684146               0.000000
 MO|    135               0.732658              19.936626               0.000000
 MO|    136               0.734883              19.997183               0.000000
 MO|    137               0.745235              20.278870               0.000000
 MO|    138               0.746965              20.325955               0.000000
 MO|    139               0.762142              20.738927               0.000000
 MO|    140               0.771911              21.004777               0.000000
 MO|    141               0.782449              21.291508               0.000000
 MO|    142               0.788582              21.458407               0.000000
 MO|    143               0.792699              21.570432               0.000000
 MO|    144               0.797297              21.695555               0.000000
 MO|    145               0.800862              21.792574               0.000000
 MO|    146               0.811661              22.086424               0.000000
 MO|    147               0.813576              22.138521               0.000000
 MO|    148               0.824822              22.444538               0.000000
 MO| Sum:                                                              96.000000
 MO| E(Fermi):           -0.062441 a.u.         -1.699111 eV
 MO| Band gap:            0.136479 a.u.          3.713778 eV

    12 Broy./Diag. 0.40E+00    0.2     0.00082346      -533.8414624053 -5.56E-03
  Decoupling Energy:                                              -0.0000087633

 MO| EIGENVALUES AND OCCUPATION NUMBERS AFTER SCF STEP 12
 MO|
 MO|  Index      Eigenvalue [a.u.]        Eigenvalue [eV]             Occupation
 MO|      1              -9.792673            -266.472185               2.000000
 MO|      2              -9.792642            -266.471343               2.000000
 MO|      3              -9.792494            -266.467323               2.000000
 MO|      4              -9.792468            -266.466603               2.000000
 MO|      5              -9.786533            -266.305119               2.000000
 MO|      6              -9.786530            -266.305032               2.000000
 MO|      7              -9.786449            -266.302819               2.000000
 MO|      8              -9.786432            -266.302364               2.000000
 MO|      9              -9.782383            -266.192172               2.000000
 MO|     10              -9.782379            -266.192072               2.000000
 MO|     11              -9.782039            -266.182812               2.000000
 MO|     12              -9.782035            -266.182696               2.000000
 MO|     13              -9.781685            -266.173188               2.000000
 MO|     14              -9.781572            -266.170098               2.000000
 MO|     15              -0.816951             -22.230373               2.000000
 MO|     16              -0.779681             -21.216204               2.000000
 MO|     17              -0.737169             -20.059396               2.000000
 MO|     18              -0.735560             -20.015593               2.000000
 MO|     19              -0.680746             -18.524046               2.000000
 MO|     20              -0.675770             -18.388644               2.000000
 MO|     21              -0.639505             -17.401813               2.000000
 MO|     22              -0.599102             -16.302398               2.000000
 MO|     23              -0.566197             -15.406995               2.000000
 MO|     24              -0.551139             -14.997258               2.000000
 MO|     25              -0.535514             -14.572077               2.000000
 MO|     26              -0.484368             -13.180323               2.000000
 MO|     27              -0.471134             -12.820214               2.000000
 MO|     28              -0.458457             -12.475252               2.000000
 MO|     29              -0.412871             -11.234782               2.000000
 MO|     30              -0.408421             -11.113697               2.000000
 MO|     31              -0.407573             -11.090623               2.000000
 MO|     32              -0.407121             -11.078339               2.000000
 MO|     33              -0.399610             -10.873946               2.000000
 MO|     34              -0.372115             -10.125756               2.000000
 MO|     35              -0.369730             -10.060877               2.000000
 MO|     36              -0.367127              -9.990041               2.000000
 MO|     37              -0.351113              -9.554272               2.000000
 MO|     38              -0.349114              -9.499874               2.000000
 MO|     39              -0.325296              -8.851752               2.000000
 MO|     40              -0.315703              -8.590707               2.000000
 MO|     41              -0.307027              -8.354619               2.000000
 MO|     42              -0.295968              -8.053697               2.000000
 MO|     43              -0.287550              -7.824636               2.000000
 MO|     44              -0.275212              -7.488911               2.000000
 MO|     45              -0.224712              -6.114737               2.000000
 MO|     46              -0.222058              -6.042513               2.000000
 MO|     47              -0.205900              -5.602826               2.000000
 MO|     48              -0.188202              -5.121248               2.000000
 MO|     49              -0.051757              -1.408387               0.000000
 MO|     50              -0.028334              -0.771001               0.000000
 MO|     51              -0.026223              -0.713571               0.000000
 MO|     52              -0.015697              -0.427135               0.000000
 MO|     53              -0.002741              -0.074591               0.000000
 MO|     54              -0.000573              -0.015593               0.000000
 MO|     55               0.007494               0.203910               0.000000
 MO|     56               0.017984               0.489370               0.000000
 MO|     57               0.028188               0.767042               0.000000
 MO|     58               0.040357               1.098172               0.000000
 MO|     59               0.042711               1.162232               0.000000
 MO|     60               0.044635               1.214569               0.000000
 MO|     61               0.044672               1.215596               0.000000
 MO|     62               0.051804               1.409651               0.000000
 MO|     63               0.069193               1.882831               0.000000
 MO|     64               0.072286               1.967000               0.000000
 MO|     65               0.072746               1.979525               0.000000
 MO|     66               0.087686               2.386046               0.000000
 MO|     67               0.091049               2.477577               0.000000
 MO|     68               0.097546               2.654371               0.000000
 MO|     69               0.100731               2.741039               0.000000
 MO|     70               0.110936               3.018724               0.000000
 MO|     71               0.115170               3.133923               0.000000
 MO|     72               0.115619               3.146157               0.000000
 MO|     73               0.120134               3.269000               0.000000
 MO|     74               0.139558               3.797564               0.000000
 MO|     75               0.139914               3.807256               0.000000
 MO|     76               0.141690               3.855579               0.000000
 MO|     77               0.142656               3.881875               0.000000
 MO|     78               0.151113               4.111990               0.000000
 MO|     79               0.158399               4.310247               0.000000
 MO|     80               0.173511               4.721482               0.000000
 MO|     81               0.179204               4.876381               0.000000
 MO|     82               0.184286               5.014674               0.000000
 MO|     83               0.189720               5.162543               0.000000
 MO|     84               0.189769               5.163870               0.000000
 MO|     85               0.198636               5.405150               0.000000
 MO|     86               0.210642               5.731866               0.000000
 MO|     87               0.216502               5.891323               0.000000
 MO|     88               0.219472               5.972133               0.000000
 MO|     89               0.220838               6.009315               0.000000
 MO|     90               0.229949               6.257228               0.000000
 MO|     91               0.236160               6.426229               0.000000
 MO|     92               0.243495               6.625834               0.000000
 MO|     93               0.243849               6.635473               0.000000
 MO|     94               0.245586               6.682722               0.000000
 MO|     95               0.258707               7.039767               0.000000
 MO|     96               0.263284               7.164320               0.000000
 MO|     97               0.272982               7.428216               0.000000
 MO|     98               0.278572               7.580327               0.000000
 MO|     99               0.280723               7.638860               0.000000
 MO|    100               0.299136               8.139900               0.000000
 MO|    101               0.301463               8.203233               0.000000
 MO|    102               0.302551               8.232828               0.000000
 MO|    103               0.305497               8.312993               0.000000
 MO|    104               0.316330               8.607766               0.000000
 MO|    105               0.327810               8.920173               0.000000
 MO|    106               0.329041               8.953656               0.000000
 MO|    107               0.339071               9.226583               0.000000
 MO|    108               0.344406               9.371754               0.000000
 MO|    109               0.349177               9.501580               0.000000
 MO|    110               0.353594               9.621788               0.000000
 MO|    111               0.367487               9.999835               0.000000
 MO|    112               0.376413              10.242707               0.000000
 MO|    113               0.389118              10.588428               0.000000
 MO|    114               0.416700              11.338979               0.000000
 MO|    115               0.434027              11.810480               0.000000
 MO|    116               0.449005              12.218059               0.000000
 MO|    117               0.449288              12.225746               0.000000
 MO|    118               0.475373              12.935556               0.000000
 MO|    119               0.487460              13.264449               0.000000
 MO|    120               0.504221              13.720550               0.000000
 MO|    121               0.522370              14.214415               0.000000
 MO|    122               0.554315              15.083670               0.000000
 MO|    123               0.560852              15.261563               0.000000
 MO|    124               0.588211              16.006035               0.000000
 MO|    125               0.596505              16.231717               0.000000
 MO|    126               0.602930              16.406563               0.000000
 MO|    127               0.605648              16.480531               0.000000
 MO|    128               0.615873              16.758764               0.000000
 MO|    129               0.620526              16.885375               0.000000
 MO|    130               0.628292              17.096707               0.000000
 MO|    131               0.647707              17.624991               0.000000
 MO|    132               0.662070              18.015841               0.000000
 MO|    133               0.723176              19.678609               0.000000
 MO|    134               0.723420              19.685268               0.000000
 MO|    135               0.732685              19.937377               0.000000
 MO|    136               0.735018              20.000858               0.000000
 MO|    137               0.745334              20.281557               0.000000
 MO|    138               0.747067              20.328724               0.000000
 MO|    139               0.762229              20.741303               0.000000
 MO|    140               0.771953              21.005908               0.000000
 MO|    141               0.782149              21.283368               0.000000
 MO|    142               0.788556              21.457712               0.000000
 MO|    143               0.792697              21.570392               0.000000
 MO|    144               0.797235              21.693879               0.000000
 MO|    145               0.801028              21.797081               0.000000
 MO|    146               0.811756              22.089000               0.000000
 MO|    147               0.813673              22.141177               0.000000
 MO|    148               0.824927              22.447396               0.000000
 MO| Sum:                                                              96.000000
 MO| E(Fermi):           -0.062294 a.u.         -1.695096 eV
 MO| Band gap:            0.136445 a.u.          3.712861 eV

    13 Broy./Diag. 0.40E+00    0.2     0.00027123      -533.8423314826 -8.69E-04
  Decoupling Energy:                                              -0.0000082892

 MO| EIGENVALUES AND OCCUPATION NUMBERS AFTER SCF STEP 13
 MO|
 MO|  Index      Eigenvalue [a.u.]        Eigenvalue [eV]             Occupation
 MO|      1              -9.791991            -266.453636               2.000000
 MO|      2              -9.791960            -266.452795               2.000000
 MO|      3              -9.791813            -266.448774               2.000000
 MO|      4              -9.791786            -266.448054               2.000000
 MO|      5              -9.785897            -266.287801               2.000000
 MO|      6              -9.785894            -266.287714               2.000000
 MO|      7              -9.785813            -266.285502               2.000000
 MO|      8              -9.785796            -266.285046               2.000000
 MO|      9              -9.781767            -266.175427               2.000000
 MO|     10              -9.781764            -266.175327               2.000000
 MO|     11              -9.781423            -266.166056               2.000000
 MO|     12              -9.781419            -266.165951               2.000000
 MO|     13              -9.780995            -266.154404               2.000000
 MO|     14              -9.780881            -266.151303               2.000000
 MO|     15              -0.816196             -22.209821               2.000000
 MO|     16              -0.778941             -21.196051               2.000000
 MO|     17              -0.736438             -20.039505               2.000000
 MO|     18              -0.734817             -19.995382               2.000000
 MO|     19              -0.680016             -18.504189               2.000000
 MO|     20              -0.675040             -18.368785               2.000000
 MO|     21              -0.638782             -17.382148               2.000000
 MO|     22              -0.598379             -16.282718               2.000000
 MO|     23              -0.565471             -15.387261               2.000000
 MO|     24              -0.550418             -14.977633               2.000000
 MO|     25              -0.534800             -14.552655               2.000000
 MO|     26              -0.483664             -13.161157               2.000000
 MO|     27              -0.470420             -12.800779               2.000000
 MO|     28              -0.457751             -12.456052               2.000000
 MO|     29              -0.412161             -11.215463               2.000000
 MO|     30              -0.407677             -11.093444               2.000000
 MO|     31              -0.406865             -11.071362               2.000000
 MO|     32              -0.406432             -11.059578               2.000000
 MO|     33              -0.398891             -10.854371               2.000000
 MO|     34              -0.371412             -10.106634               2.000000
 MO|     35              -0.369020             -10.041548               2.000000
 MO|     36              -0.366397              -9.970157               2.000000
 MO|     37              -0.350385              -9.534464               2.000000
 MO|     38              -0.348410              -9.480717               2.000000
 MO|     39              -0.324557              -8.831658               2.000000
 MO|     40              -0.315015              -8.572006               2.000000
 MO|     41              -0.306332              -8.335726               2.000000
 MO|     42              -0.295245              -8.034028               2.000000
 MO|     43              -0.286840              -7.805316               2.000000
 MO|     44              -0.274501              -7.469560               2.000000
 MO|     45              -0.223981              -6.094846               2.000000
 MO|     46              -0.221320              -6.022427               2.000000
 MO|     47              -0.205175              -5.583085               2.000000
 MO|     48              -0.187471              -5.101347               2.000000
 MO|     49              -0.051052              -1.389201               0.000000
 MO|     50              -0.027620              -0.751567               0.000000
 MO|     51              -0.025504              -0.693989               0.000000
 MO|     52              -0.014987              -0.407807               0.000000
 MO|     53              -0.001999              -0.054397               0.000000
 MO|     54               0.000161               0.004376               0.000000
 MO|     55               0.008157               0.221959               0.000000
 MO|     56               0.018736               0.509821               0.000000
 MO|     57               0.028862               0.785379               0.000000
 MO|     58               0.041082               1.117886               0.000000
 MO|     59               0.043585               1.186018               0.000000
 MO|     60               0.045333               1.233576               0.000000
 MO|     61               0.045354               1.234156               0.000000
 MO|     62               0.052650               1.432670               0.000000
 MO|     63               0.069843               1.900532               0.000000
 MO|     64               0.072930               1.984514               0.000000
 MO|     65               0.073468               1.999162               0.000000
 MO|     66               0.088511               2.408508               0.000000
 MO|     67               0.091737               2.496294               0.000000
 MO|     68               0.098207               2.672346               0.000000
 MO|     69               0.101464               2.760963               0.000000
 MO|     70               0.111589               3.036498               0.000000
 MO|     71               0.115848               3.152372               0.000000
 MO|     72               0.116272               3.163932               0.000000
 MO|     73               0.120851               3.288523               0.000000
 MO|     74               0.140228               3.815808               0.000000
 MO|     75               0.140591               3.825670               0.000000
 MO|     76               0.142682               3.882575               0.000000
 MO|     77               0.143335               3.900335               0.000000
 MO|     78               0.151852               4.132109               0.000000
 MO|     79               0.159093               4.329151               0.000000
 MO|     80               0.174178               4.739633               0.000000
 MO|     81               0.179881               4.894821               0.000000
 MO|     82               0.184925               5.032077               0.000000
 MO|     83               0.190431               5.181892               0.000000
 MO|     84               0.190522               5.184365               0.000000
 MO|     85               0.199264               5.422259               0.000000
 MO|     86               0.211342               5.750916               0.000000
 MO|     87               0.217278               5.912435               0.000000
 MO|     88               0.220224               5.992613               0.000000
 MO|     89               0.221527               6.028068               0.000000
 MO|     90               0.230656               6.276481               0.000000
 MO|     91               0.236892               6.446161               0.000000
 MO|     92               0.244224               6.645677               0.000000
 MO|     93               0.244523               6.653804               0.000000
 MO|     94               0.246348               6.703482               0.000000
 MO|     95               0.259371               7.057838               0.000000
 MO|     96               0.264039               7.184874               0.000000
 MO|     97               0.273678               7.447151               0.000000
 MO|     98               0.279260               7.599057               0.000000
 MO|     99               0.281456               7.658805               0.000000
 MO|    100               0.299832               8.158847               0.000000
 MO|    101               0.302090               8.220274               0.000000
 MO|    102               0.303284               8.252789               0.000000
 MO|    103               0.306262               8.333812               0.000000
 MO|    104               0.317079               8.628147               0.000000
 MO|    105               0.328509               8.939191               0.000000
 MO|    106               0.329761               8.973250               0.000000
 MO|    107               0.339768               9.245545               0.000000
 MO|    108               0.345077               9.390012               0.000000
 MO|    109               0.349889               9.520959               0.000000
 MO|    110               0.354297               9.640901               0.000000
 MO|    111               0.368197              10.019157               0.000000
 MO|    112               0.377073              10.260690               0.000000
 MO|    113               0.389799              10.606959               0.000000
 MO|    114               0.417430              11.358845               0.000000
 MO|    115               0.434772              11.830752               0.000000
 MO|    116               0.449497              12.231430               0.000000
 MO|    117               0.449971              12.244339               0.000000
 MO|    118               0.476055              12.954120               0.000000
 MO|    119               0.488108              13.282088               0.000000
 MO|    120               0.504898              13.738986               0.000000
 MO|    121               0.523144              14.235476               0.000000
 MO|    122               0.555054              15.103791               0.000000
 MO|    123               0.561551              15.280587               0.000000
 MO|    124               0.588913              16.025131               0.000000
 MO|    125               0.597324              16.254023               0.000000
 MO|    126               0.603609              16.425044               0.000000
 MO|    127               0.606368              16.500113               0.000000
 MO|    128               0.616621              16.779108               0.000000
 MO|    129               0.621260              16.905348               0.000000
 MO|    130               0.629086              17.118298               0.000000
 MO|    131               0.648429              17.644651               0.000000
 MO|    132               0.662793              18.035525               0.000000
 MO|    133               0.723855              19.697110               0.000000
 MO|    134               0.724233              19.707393               0.000000
 MO|    135               0.733380              19.956277               0.000000
 MO|    136               0.735709              20.019671               0.000000
 MO|    137               0.746040              20.300769               0.000000
 MO|    138               0.747769              20.347832               0.000000
 MO|    139               0.762896              20.759448               0.000000
 MO|    140               0.772700              21.026230               0.000000
 MO|    141               0.782807              21.301250               0.000000
 MO|    142               0.789181              21.474699               0.000000
 MO|    143               0.793416              21.589961               0.000000
 MO|    144               0.797896              21.711850               0.000000
 MO|    145               0.801744              21.816575               0.000000
 MO|    146               0.812443              22.107686               0.000000
 MO|    147               0.814358              22.159795               0.000000
 MO|    148               0.825612              22.466041               0.000000
 MO| Sum:                                                              96.000000
 MO| E(Fermi):           -0.061589 a.u.         -1.675909 eV
 MO| Band gap:            0.136419 a.u.          3.712146 eV

    14 Broy./Diag. 0.40E+00    0.2     0.00029724      -533.8396292354  2.70E-03
  Decoupling Energy:                                              -0.0000082427

 MO| EIGENVALUES AND OCCUPATION NUMBERS AFTER SCF STEP 14
 MO|
 MO|  Index      Eigenvalue [a.u.]        Eigenvalue [eV]             Occupation
 MO|      1              -9.791944            -266.452356               2.000000
 MO|      2              -9.791913            -266.451514               2.000000
 MO|      3              -9.791766            -266.447494               2.000000
 MO|      4              -9.791739            -266.446774               2.000000
 MO|      5              -9.785844            -266.286367               2.000000
 MO|      6              -9.785841            -266.286280               2.000000
 MO|      7              -9.785760            -266.284068               2.000000
 MO|      8              -9.785743            -266.283612               2.000000
 MO|      9              -9.781716            -266.174033               2.000000
 MO|     10              -9.781712            -266.173933               2.000000
 MO|     11              -9.781372            -266.164665               2.000000
 MO|     12              -9.781368            -266.164557               2.000000
 MO|     13              -9.780959            -266.153418               2.000000
 MO|     14              -9.780845            -266.150319               2.000000
 MO|     15              -0.816140             -22.208302               2.000000
 MO|     16              -0.778884             -21.194525               2.000000
 MO|     17              -0.736384             -20.038032               2.000000
 MO|     18              -0.734766             -19.993998               2.000000
 MO|     19              -0.679964             -18.502750               2.000000
 MO|     20              -0.674988             -18.367346               2.000000
 MO|     21              -0.638731             -17.380759               2.000000
 MO|     22              -0.598329             -16.281366               2.000000
 MO|     23              -0.565422             -15.385907               2.000000
 MO|     24              -0.550368             -14.976288               2.000000
 MO|     25              -0.534750             -14.551285               2.000000
 MO|     26              -0.483617             -13.159887               2.000000
 MO|     27              -0.470371             -12.799439               2.000000
 MO|     28              -0.457703             -12.454743               2.000000
 MO|     29              -0.412113             -11.214176               2.000000
 MO|     30              -0.407622             -11.091952               2.000000
 MO|     31              -0.406815             -11.070000               2.000000
 MO|     32              -0.406388             -11.058373               2.000000
 MO|     33              -0.398840             -10.852999               2.000000
 MO|     34              -0.371363             -10.105297               2.000000
 MO|     35              -0.368971             -10.040210               2.000000
 MO|     36              -0.366346              -9.968773               2.000000
 MO|     37              -0.350334              -9.533062               2.000000
 MO|     38              -0.348362              -9.479415               2.000000
 MO|     39              -0.324500              -8.830084               2.000000
 MO|     40              -0.314970              -8.570765               2.000000
 MO|     41              -0.306285              -8.334439               2.000000
 MO|     42              -0.295190              -8.032542               2.000000
 MO|     43              -0.286791              -7.803981               2.000000
 MO|     44              -0.274453              -7.468243               2.000000
 MO|     45              -0.223924              -6.093288               2.000000
 MO|     46              -0.221263              -6.020871               2.000000
 MO|     47              -0.205119              -5.581571               2.000000
 MO|     48              -0.187416              -5.099857               2.000000
 MO|     49              -0.050990              -1.387508               0.000000
 MO|     50              -0.027561              -0.749960               0.000000
 MO|     51              -0.025447              -0.692450               0.000000
 MO|     52              -0.014924              -0.406113               0.000000
 MO|     53              -0.001881              -0.051173               0.000000
 MO|     54               0.000298               0.008096               0.000000
 MO|     55               0.008243               0.224302               0.000000
 MO|     56               0.018838               0.512605               0.000000
 MO|     57               0.028976               0.788487               0.000000
 MO|     58               0.041192               1.120878               0.000000
 MO|     59               0.043717               1.189600               0.000000
 MO|     60               0.045442               1.236527               0.000000
 MO|     61               0.045470               1.237315               0.000000
 MO|     62               0.052776               1.436116               0.000000
 MO|     63               0.069959               1.903682               0.000000
 MO|     64               0.073012               1.986768               0.000000
 MO|     65               0.073564               2.001773               0.000000
 MO|     66               0.088660               2.412567               0.000000
 MO|     67               0.091837               2.499024               0.000000
 MO|     68               0.098307               2.675079               0.000000
 MO|     69               0.101547               2.763227               0.000000
 MO|     70               0.111684               3.039067               0.000000
 MO|     71               0.115931               3.154636               0.000000
 MO|     72               0.116341               3.165800               0.000000
 MO|     73               0.120975               3.291904               0.000000
 MO|     74               0.140320               3.818291               0.000000
 MO|     75               0.140702               3.828687               0.000000
 MO|     76               0.142855               3.887275               0.000000
 MO|     77               0.143414               3.902498               0.000000
 MO|     78               0.151985               4.135721               0.000000
 MO|     79               0.159197               4.331978               0.000000
 MO|     80               0.174277               4.742314               0.000000
 MO|     81               0.179989               4.897749               0.000000
 MO|     82               0.185040               5.035188               0.000000
 MO|     83               0.190558               5.185343               0.000000
 MO|     84               0.190661               5.188155               0.000000
 MO|     85               0.199367               5.425063               0.000000
 MO|     86               0.211444               5.753682               0.000000
 MO|     87               0.217456               5.917272               0.000000
 MO|     88               0.220412               5.997719               0.000000
 MO|     89               0.221673               6.032032               0.000000
 MO|     90               0.230750               6.279032               0.000000
 MO|     91               0.236959               6.447970               0.000000
 MO|     92               0.244306               6.647911               0.000000
 MO|     93               0.244620               6.656436               0.000000
 MO|     94               0.246510               6.707876               0.000000
 MO|     95               0.259515               7.061767               0.000000
 MO|     96               0.264202               7.189293               0.000000
 MO|     97               0.273804               7.450577               0.000000
 MO|     98               0.279344               7.601328               0.000000
 MO|     99               0.281568               7.661855               0.000000
 MO|    100               0.299938               8.161730               0.000000
 MO|    101               0.302187               8.222924               0.000000
 MO|    102               0.303422               8.256539               0.000000
 MO|    103               0.306389               8.337275               0.000000
 MO|    104               0.317209               8.631685               0.000000
 MO|    105               0.328608               8.941885               0.000000
 MO|    106               0.329855               8.975808               0.000000
 MO|    107               0.339848               9.247726               0.000000
 MO|    108               0.345159               9.392264               0.000000
 MO|    109               0.349981               9.523459               0.000000
 MO|    110               0.354383               9.643252               0.000000
 MO|    111               0.368292              10.021733               0.000000
 MO|    112               0.377190              10.263857               0.000000
 MO|    113               0.389939              10.610776               0.000000
 MO|    114               0.417513              11.361102               0.000000
 MO|    115               0.434855              11.832998               0.000000
 MO|    116               0.449622              12.234831               0.000000
 MO|    117               0.450063              12.246847               0.000000
 MO|    118               0.476130              12.956163               0.000000
 MO|    119               0.488190              13.284330               0.000000
 MO|    120               0.505003              13.741829               0.000000
 MO|    121               0.523279              14.239145               0.000000
 MO|    122               0.555158              15.106620               0.000000
 MO|    123               0.561618              15.282394               0.000000
 MO|    124               0.588992              16.027289               0.000000
 MO|    125               0.597430              16.256909               0.000000
 MO|    126               0.603675              16.426838               0.000000
 MO|    127               0.606441              16.502107               0.000000
 MO|    128               0.616720              16.781818               0.000000
 MO|    129               0.621344              16.907643               0.000000
 MO|    130               0.629187              17.121057               0.000000
 MO|    131               0.648494              17.646419               0.000000
 MO|    132               0.662868              18.037562               0.000000
 MO|    133               0.723927              19.699055               0.000000
 MO|    134               0.724326              19.709907               0.000000
 MO|    135               0.733466              19.958633               0.000000
 MO|    136               0.735766              20.021207               0.000000
 MO|    137               0.746112              20.302748               0.000000
 MO|    138               0.747836              20.349654               0.000000
 MO|    139               0.762965              20.761342               0.000000
 MO|    140               0.772787              21.028614               0.000000
 MO|    141               0.782936              21.304784               0.000000
 MO|    142               0.789260              21.476855               0.000000
 MO|    143               0.793504              21.592329               0.000000
 MO|    144               0.797982              21.714185               0.000000
 MO|    145               0.801806              21.818258               0.000000
 MO|    146               0.812515              22.109669               0.000000
 MO|    147               0.814428              22.161710               0.000000
 MO|    148               0.825676              22.467783               0.000000
 MO| Sum:                                                              96.000000
 MO| E(Fermi):           -0.061526 a.u.         -1.674216 eV
 MO| Band gap:            0.136426 a.u.          3.712349 eV

    15 Broy./Diag. 0.40E+00    0.2     0.00005382      -533.8419563114 -2.33E-03
  Decoupling Energy:                                              -0.0000082616

 MO| EIGENVALUES AND OCCUPATION NUMBERS AFTER SCF STEP 15
 MO|
 MO|  Index      Eigenvalue [a.u.]        Eigenvalue [eV]             Occupation
 MO|      1              -9.792101            -266.456627               2.000000
 MO|      2              -9.792070            -266.455786               2.000000
 MO|      3              -9.791923            -266.451766               2.000000
 MO|      4              -9.791896            -266.451045               2.000000
 MO|      5              -9.785991            -266.290363               2.000000
 MO|      6              -9.785988            -266.290276               2.000000
 MO|      7              -9.785907            -266.288063               2.000000
 MO|      8              -9.785890            -266.287608               2.000000
 MO|      9              -9.781864            -266.178053               2.000000
 MO|     10              -9.781860            -266.177952               2.000000
 MO|     11              -9.781520            -266.168685               2.000000
 MO|     12              -9.781516            -266.168577               2.000000
 MO|     13              -9.781118            -266.157744               2.000000
 MO|     14              -9.781004            -266.154646               2.000000
 MO|     15              -0.816313             -22.212995               2.000000
 MO|     16              -0.779058             -21.199254               2.000000
 MO|     17              -0.736559             -20.042783               2.000000
 MO|     18              -0.734938             -19.998684               2.000000
 MO|     19              -0.680139             -18.507520               2.000000
 MO|     20              -0.675163             -18.372125               2.000000
 MO|     21              -0.638907             -17.385552               2.000000
 MO|     22              -0.598504             -16.286112               2.000000
 MO|     23              -0.565596             -15.390638               2.000000
 MO|     24              -0.550547             -14.981138               2.000000
 MO|     25              -0.534927             -14.556106               2.000000
 MO|     26              -0.483795             -13.164742               2.000000
 MO|     27              -0.470547             -12.804245               2.000000
 MO|     28              -0.457880             -12.459540               2.000000
 MO|     29              -0.412284             -11.218828               2.000000
 MO|     30              -0.407787             -11.096450               2.000000
 MO|     31              -0.406992             -11.074809               2.000000
 MO|     32              -0.406568             -11.063277               2.000000
 MO|     33              -0.399017             -10.857803               2.000000
 MO|     34              -0.371538             -10.110053               2.000000
 MO|     35              -0.369144             -10.044919               2.000000
 MO|     36              -0.366510              -9.973238               2.000000
 MO|     37              -0.350508              -9.537801               2.000000
 MO|     38              -0.348538              -9.484193               2.000000
 MO|     39              -0.324670              -8.834714               2.000000
 MO|     40              -0.315150              -8.575656               2.000000
 MO|     41              -0.306461              -8.339239               2.000000
 MO|     42              -0.295361              -8.037186               2.000000
 MO|     43              -0.286962              -7.808637               2.000000
 MO|     44              -0.274629              -7.473040               2.000000
 MO|     45              -0.224092              -6.097850               2.000000
 MO|     46              -0.221433              -6.025502               2.000000
 MO|     47              -0.205288              -5.586159               2.000000
 MO|     48              -0.187582              -5.104360               2.000000
 MO|     49              -0.051121              -1.391072               0.000000
 MO|     50              -0.027710              -0.754035               0.000000
 MO|     51              -0.025607              -0.696797               0.000000
 MO|     52              -0.015049              -0.409504               0.000000
 MO|     53              -0.001754              -0.047729               0.000000
 MO|     54               0.000491               0.013362               0.000000
 MO|     55               0.008280               0.225302               0.000000
 MO|     56               0.018912               0.514609               0.000000
 MO|     57               0.029119               0.792374               0.000000
 MO|     58               0.041274               1.123127               0.000000
 MO|     59               0.043832               1.192723               0.000000
 MO|     60               0.045586               1.240468               0.000000
 MO|     61               0.045590               1.240578               0.000000
 MO|     62               0.052913               1.439842               0.000000
 MO|     63               0.070114               1.907910               0.000000
 MO|     64               0.073053               1.987884               0.000000
 MO|     65               0.073606               2.002919               0.000000
 MO|     66               0.088874               2.418376               0.000000
 MO|     67               0.091933               2.501635               0.000000
 MO|     68               0.098381               2.677096               0.000000
 MO|     69               0.101522               2.762565               0.000000
 MO|     70               0.111749               3.040832               0.000000
 MO|     71               0.115947               3.155066               0.000000
 MO|     72               0.116282               3.164189               0.000000
 MO|     73               0.121133               3.296207               0.000000
 MO|     74               0.140351               3.819154               0.000000
 MO|     75               0.140823               3.831981               0.000000
 MO|     76               0.143110               3.894234               0.000000
 MO|     77               0.143410               3.902381               0.000000
 MO|     78               0.152179               4.141004               0.000000
 MO|     79               0.159279               4.334198               0.000000
 MO|     80               0.174321               4.743504               0.000000
 MO|     81               0.180077               4.900157               0.000000
 MO|     82               0.185188               5.039224               0.000000
 MO|     83               0.190715               5.189608               0.000000
 MO|     84               0.190862               5.193623               0.000000
 MO|     85               0.199474               5.427954               0.000000
 MO|     86               0.211505               5.755332               0.000000
 MO|     87               0.217817               5.927106               0.000000
 MO|     88               0.220840               6.009365               0.000000
 MO|     89               0.221926               6.038906               0.000000
 MO|     90               0.230768               6.279510               0.000000
 MO|     91               0.236844               6.444864               0.000000
 MO|     92               0.244255               6.646508               0.000000
 MO|     93               0.244673               6.657887               0.000000
 MO|     94               0.246809               6.716024               0.000000
 MO|     95               0.259788               7.069180               0.000000
 MO|     96               0.264508               7.197630               0.000000
 MO|     97               0.273935               7.454160               0.000000
 MO|     98               0.279332               7.601015               0.000000
 MO|     99               0.281633               7.663634               0.000000
 MO|    100               0.300000               8.163403               0.000000
 MO|    101               0.302256               8.224795               0.000000
 MO|    102               0.303597               8.261294               0.000000
 MO|    103               0.306545               8.341517               0.000000
 MO|    104               0.317380               8.636340               0.000000
 MO|    105               0.328669               8.943528               0.000000
 MO|    106               0.329857               8.975874               0.000000
 MO|    107               0.339817               9.246881               0.000000
 MO|    108               0.345161               9.392301               0.000000
 MO|    109               0.349982               9.523505               0.000000
 MO|    110               0.354389               9.643403               0.000000
 MO|    111               0.368315              10.022369               0.000000
 MO|    112               0.377373              10.268839               0.000000
 MO|    113               0.390173              10.617134               0.000000
 MO|    114               0.417459              11.359643               0.000000
 MO|    115               0.434811              11.831797               0.000000
 MO|    116               0.449897              12.242321               0.000000
 MO|    117               0.450070              12.247030               0.000000
 MO|    118               0.476082              12.954849               0.000000
 MO|    119               0.488180              13.284060               0.000000
 MO|    120               0.505078              13.743870               0.000000
 MO|    121               0.523434              14.243372               0.000000
 MO|    122               0.555204              15.107869               0.000000
 MO|    123               0.561515              15.279599               0.000000
 MO|    124               0.588941              16.025900               0.000000
 MO|    125               0.597457              16.257626               0.000000
 MO|    126               0.603572              16.424037               0.000000
 MO|    127               0.606353              16.499712               0.000000
 MO|    128               0.616738              16.782300               0.000000
 MO|    129               0.621318              16.906916               0.000000
 MO|    130               0.629217              17.121870               0.000000
 MO|    131               0.648380              17.643305               0.000000
 MO|    132               0.662794              18.035528               0.000000
 MO|    133               0.723844              19.696788               0.000000
 MO|    134               0.724318              19.709684               0.000000
 MO|    135               0.733445              19.958057               0.000000
 MO|    136               0.735638              20.017727               0.000000
 MO|    137               0.746027              20.300426               0.000000
 MO|    138               0.747734              20.346873               0.000000
 MO|    139               0.762878              20.758967               0.000000
 MO|    140               0.772762              21.027916               0.000000
 MO|    141               0.783113              21.309577               0.000000
 MO|    142               0.789246              21.476483               0.000000
 MO|    143               0.793503              21.592314               0.000000
 MO|    144               0.798001              21.714712               0.000000
 MO|    145               0.801673              21.814632               0.000000
 MO|    146               0.812427              22.107268               0.000000
 MO|    147               0.814343              22.159394               0.000000
 MO|    148               0.825584              22.465273               0.000000
 MO| Sum:                                                              96.000000
 MO| E(Fermi):           -0.061657 a.u.         -1.677780 eV
 MO| Band gap:            0.136461 a.u.          3.713288 eV

    16 Broy./Diag. 0.40E+00    0.2     0.00015322      -533.8421496110 -1.93E-04
  Decoupling Energy:                                              -0.0000082506

 MO| EIGENVALUES AND OCCUPATION NUMBERS AFTER SCF STEP 16
 MO|
 MO|  Index      Eigenvalue [a.u.]        Eigenvalue [eV]             Occupation
 MO|      1              -9.792158            -266.458183               2.000000
 MO|      2              -9.792128            -266.457341               2.000000
 MO|      3              -9.791980            -266.453321               2.000000
 MO|      4              -9.791953            -266.452601               2.000000
 MO|      5              -9.786049            -266.291935               2.000000
 MO|      6              -9.786046            -266.291848               2.000000
 MO|      7              -9.785964            -266.289636               2.000000
 MO|      8              -9.785948            -266.289180               2.000000
 MO|      9              -9.781923            -266.179652               2.000000
 MO|     10              -9.781919            -266.179552               2.000000
 MO|     11              -9.781578            -266.170283               2.000000
 MO|     12              -9.781574            -266.170176               2.000000
 MO|     13              -9.781165            -266.159027               2.000000
 MO|     14              -9.781051            -266.155928               2.000000
 MO|     15              -0.816370             -22.214549               2.000000
 MO|     16              -0.779116             -21.200830               2.000000
 MO|     17              -0.736616             -20.044338               2.000000
 MO|     18              -0.734994             -20.000196               2.000000
 MO|     19              -0.680196             -18.509078               2.000000
 MO|     20              -0.675221             -18.373692               2.000000
 MO|     21              -0.638964             -17.387091               2.000000
 MO|     22              -0.598560             -16.287654               2.000000
 MO|     23              -0.565652             -15.392172               2.000000
 MO|     24              -0.550603             -14.982678               2.000000
 MO|     25              -0.534984             -14.557660               2.000000
 MO|     26              -0.483852             -13.166287               2.000000
 MO|     27              -0.470604             -12.805787               2.000000
 MO|     28              -0.457936             -12.461076               2.000000
 MO|     29              -0.412340             -11.220330               2.000000
 MO|     30              -0.407843             -11.097972               2.000000
 MO|     31              -0.407049             -11.076365               2.000000
 MO|     32              -0.406624             -11.064805               2.000000
 MO|     33              -0.399074             -10.859358               2.000000
 MO|     34              -0.371594             -10.111594               2.000000
 MO|     35              -0.369200             -10.046447               2.000000
 MO|     36              -0.366565              -9.974728               2.000000
 MO|     37              -0.350564              -9.539344               2.000000
 MO|     38              -0.348594              -9.485734               2.000000
 MO|     39              -0.324727              -8.836277               2.000000
 MO|     40              -0.315206              -8.577204               2.000000
 MO|     41              -0.306518              -8.340776               2.000000
 MO|     42              -0.295418              -8.038725               2.000000
 MO|     43              -0.287018              -7.810159               2.000000
 MO|     44              -0.274686              -7.474575               2.000000
 MO|     45              -0.224149              -6.099391               2.000000
 MO|     46              -0.221491              -6.027067               2.000000
 MO|     47              -0.205344              -5.587694               2.000000
 MO|     48              -0.187638              -5.105898               2.000000
 MO|     49              -0.051170              -1.392413               0.000000
 MO|     50              -0.027763              -0.755462               0.000000
 MO|     51              -0.025661              -0.698271               0.000000
 MO|     52              -0.015097              -0.410811               0.000000
 MO|     53              -0.001748              -0.047564               0.000000
 MO|     54               0.000505               0.013729               0.000000
 MO|     55               0.008288               0.225540               0.000000
 MO|     56               0.018921               0.514859               0.000000
 MO|     57               0.029153               0.793281               0.000000
 MO|     58               0.041264               1.122860               0.000000
 MO|     59               0.043827               1.192591               0.000000
 MO|     60               0.045603               1.240929               0.000000
 MO|     61               0.045636               1.241832               0.000000
 MO|     62               0.052916               1.439927               0.000000
 MO|     63               0.070153               1.908972               0.000000
 MO|     64               0.073057               1.987977               0.000000
 MO|     65               0.073605               2.002899               0.000000
 MO|     66               0.088893               2.418912               0.000000
 MO|     67               0.091940               2.501818               0.000000
 MO|     68               0.098383               2.677125               0.000000
 MO|     69               0.101506               2.762113               0.000000
 MO|     70               0.111751               3.040903               0.000000
 MO|     71               0.115945               3.155013               0.000000
 MO|     72               0.116259               3.163556               0.000000
 MO|     73               0.121164               3.297037               0.000000
 MO|     74               0.140357               3.819314               0.000000
 MO|     75               0.140834               3.832286               0.000000
 MO|     76               0.143116               3.894377               0.000000
 MO|     77               0.143405               3.902249               0.000000
 MO|     78               0.152196               4.141451               0.000000
 MO|     79               0.159291               4.334529               0.000000
 MO|     80               0.174312               4.743283               0.000000
 MO|     81               0.180090               4.900506               0.000000
 MO|     82               0.185206               5.039708               0.000000
 MO|     83               0.190713               5.189564               0.000000
 MO|     84               0.190880               5.194096               0.000000
 MO|     85               0.199490               5.428410               0.000000
 MO|     86               0.211519               5.755725               0.000000
 MO|     87               0.217863               5.928362               0.000000
 MO|     88               0.220892               6.010777               0.000000
 MO|     89               0.221959               6.039813               0.000000
 MO|     90               0.230763               6.279393               0.000000
 MO|     91               0.236803               6.443742               0.000000
 MO|     92               0.244226               6.645724               0.000000
 MO|     93               0.244676               6.657979               0.000000
 MO|     94               0.246837               6.716785               0.000000
 MO|     95               0.259831               7.070360               0.000000
 MO|     96               0.264532               7.198277               0.000000
 MO|     97               0.273950               7.454568               0.000000
 MO|     98               0.279312               7.600476               0.000000
 MO|     99               0.281625               7.663402               0.000000
 MO|    100               0.299991               8.163179               0.000000
 MO|    101               0.302281               8.225475               0.000000
 MO|    102               0.303611               8.261671               0.000000
 MO|    103               0.306565               8.342067               0.000000
 MO|    104               0.317383               8.636444               0.000000
 MO|    105               0.328670               8.943560               0.000000
 MO|    106               0.329837               8.975309               0.000000
 MO|    107               0.339786               9.246046               0.000000
 MO|    108               0.345158               9.392217               0.000000
 MO|    109               0.349975               9.523305               0.000000
 MO|    110               0.354381               9.643203               0.000000
 MO|    111               0.368317              10.022407               0.000000
 MO|    112               0.377427              10.270305               0.000000
 MO|    113               0.390214              10.618259               0.000000
 MO|    114               0.417425              11.358708               0.000000
 MO|    115               0.434783              11.831053               0.000000
 MO|    116               0.449984              12.244681               0.000000
 MO|    117               0.450060              12.246751               0.000000
 MO|    118               0.476048              12.953934               0.000000
 MO|    119               0.488166              13.283666               0.000000
 MO|    120               0.505083              13.743996               0.000000
 MO|    121               0.523451              14.243817               0.000000
 MO|    122               0.555203              15.107831               0.000000
 MO|    123               0.561472              15.278427               0.000000
 MO|    124               0.588914              16.025175               0.000000
 MO|    125               0.597429              16.256860               0.000000
 MO|    126               0.603535              16.423026               0.000000
 MO|    127               0.606313              16.498624               0.000000
 MO|    128               0.616729              16.782054               0.000000
 MO|    129               0.621298              16.906368               0.000000
 MO|    130               0.629190              17.121143               0.000000
 MO|    131               0.648334              17.642066               0.000000
 MO|    132               0.662759              18.034601               0.000000
 MO|    133               0.723805              19.695746               0.000000
 MO|    134               0.724295              19.709057               0.000000
 MO|    135               0.733418              19.957314               0.000000
 MO|    136               0.735596              20.016597               0.000000
 MO|    137               0.745987              20.299329               0.000000
 MO|    138               0.747692              20.345737               0.000000
 MO|    139               0.762839              20.757909               0.000000
 MO|    140               0.772730              21.027051               0.000000
 MO|    141               0.783137              21.310243               0.000000
 MO|    142               0.789231              21.476056               0.000000
 MO|    143               0.793490              21.591962               0.000000
 MO|    144               0.798002              21.714743               0.000000
 MO|    145               0.801622              21.813242               0.000000
 MO|    146               0.812387              22.106163               0.000000
 MO|    147               0.814304              22.158331               0.000000
 MO|    148               0.825544              22.464198               0.000000
 MO| Sum:                                                              96.000000
 MO| E(Fermi):           -0.061707 a.u.         -1.679121 eV
 MO| Band gap:            0.136468 a.u.          3.713485 eV

    17 Broy./Diag. 0.40E+00    0.2     0.00002459      -533.8408324031  1.32E-03
  Decoupling Energy:                                              -0.0000082097

 MO| EIGENVALUES AND OCCUPATION NUMBERS AFTER SCF STEP 17
 MO|
 MO|  Index      Eigenvalue [a.u.]        Eigenvalue [eV]             Occupation
 MO|      1              -9.792186            -266.458924               2.000000
 MO|      2              -9.792155            -266.458083               2.000000
 MO|      3              -9.792007            -266.454063               2.000000
 MO|      4              -9.791981            -266.453342               2.000000
 MO|      5              -9.786076            -266.292682               2.000000
 MO|      6              -9.786073            -266.292595               2.000000
 MO|      7              -9.785992            -266.290383               2.000000
 MO|      8              -9.785975            -266.289927               2.000000
 MO|      9              -9.781952            -266.180458               2.000000
 MO|     10              -9.781949            -266.180358               2.000000
 MO|     11              -9.781608            -266.171089               2.000000
 MO|     12              -9.781604            -266.170982               2.000000
 MO|     13              -9.781191            -266.159751               2.000000
 MO|     14              -9.781077            -266.156651               2.000000
 MO|     15              -0.816388             -22.215060               2.000000
 MO|     16              -0.779135             -21.201341               2.000000
 MO|     17              -0.736635             -20.044855               2.000000
 MO|     18              -0.735014             -20.000753               2.000000
 MO|     19              -0.680215             -18.509596               2.000000
 MO|     20              -0.675240             -18.374228               2.000000
 MO|     21              -0.638983             -17.387616               2.000000
 MO|     22              -0.598582             -16.288231               2.000000
 MO|     23              -0.565672             -15.392727               2.000000
 MO|     24              -0.550623             -14.983214               2.000000
 MO|     25              -0.535003             -14.558180               2.000000
 MO|     26              -0.483874             -13.166868               2.000000
 MO|     27              -0.470624             -12.806338               2.000000
 MO|     28              -0.457956             -12.461626               2.000000
 MO|     29              -0.412361             -11.220906               2.000000
 MO|     30              -0.407863             -11.098522               2.000000
 MO|     31              -0.407069             -11.076915               2.000000
 MO|     32              -0.406645             -11.065365               2.000000
 MO|     33              -0.399094             -10.859901               2.000000
 MO|     34              -0.371614             -10.112139               2.000000
 MO|     35              -0.369220             -10.046997               2.000000
 MO|     36              -0.366586              -9.975320               2.000000
 MO|     37              -0.350585              -9.539891               2.000000
 MO|     38              -0.348616              -9.486310               2.000000
 MO|     39              -0.324745              -8.836766               2.000000
 MO|     40              -0.315228              -8.577783               2.000000
 MO|     41              -0.306538              -8.341325               2.000000
 MO|     42              -0.295437              -8.039238               2.000000
 MO|     43              -0.287038              -7.810712               2.000000
 MO|     44              -0.274706              -7.475138               2.000000
 MO|     45              -0.224166              -6.099873               2.000000
 MO|     46              -0.221509              -6.027572               2.000000
 MO|     47              -0.205362              -5.588187               2.000000
 MO|     48              -0.187659              -5.106448               2.000000
 MO|     49              -0.051188              -1.392891               0.000000
 MO|     50              -0.027780              -0.755922               0.000000
 MO|     51              -0.025678              -0.698744               0.000000
 MO|     52              -0.015116              -0.411318               0.000000
 MO|     53              -0.001761              -0.047907               0.000000
 MO|     54               0.000491               0.013361               0.000000
 MO|     55               0.008307               0.226032               0.000000
 MO|     56               0.018917               0.514770               0.000000
 MO|     57               0.029192               0.794350               0.000000
 MO|     58               0.041240               1.122195               0.000000
 MO|     59               0.043800               1.191862               0.000000
 MO|     60               0.045615               1.241244               0.000000
 MO|     61               0.045683               1.243094               0.000000
 MO|     62               0.052880               1.438947               0.000000
 MO|     63               0.070188               1.909900               0.000000
 MO|     64               0.073058               1.988002               0.000000
 MO|     65               0.073610               2.003018               0.000000
 MO|     66               0.088875               2.418403               0.000000
 MO|     67               0.091926               2.501429               0.000000
 MO|     68               0.098383               2.677144               0.000000
 MO|     69               0.101506               2.762106               0.000000
 MO|     70               0.111751               3.040901               0.000000
 MO|     71               0.115955               3.155286               0.000000
 MO|     72               0.116257               3.163516               0.000000
 MO|     73               0.121178               3.297431               0.000000
 MO|     74               0.140377               3.819846               0.000000
 MO|     75               0.140829               3.832156               0.000000
 MO|     76               0.143052               3.892635               0.000000
 MO|     77               0.143409               3.902360               0.000000
 MO|     78               0.152174               4.140856               0.000000
 MO|     79               0.159309               4.335031               0.000000
 MO|     80               0.174312               4.743262               0.000000
 MO|     81               0.180111               4.901082               0.000000
 MO|     82               0.185209               5.039789               0.000000
 MO|     83               0.190684               5.188776               0.000000
 MO|     84               0.190858               5.193523               0.000000
 MO|     85               0.199501               5.428694               0.000000
 MO|     86               0.211538               5.756229               0.000000
 MO|     87               0.217841               5.927750               0.000000
 MO|     88               0.220854               6.009738               0.000000
 MO|     89               0.221947               6.039479               0.000000
 MO|     90               0.230785               6.279968               0.000000
 MO|     91               0.236793               6.443469               0.000000
 MO|     92               0.244215               6.645424               0.000000
 MO|     93               0.244699               6.658601               0.000000
 MO|     94               0.246806               6.715920               0.000000
 MO|     95               0.259833               7.070412               0.000000
 MO|     96               0.264490               7.197149               0.000000
 MO|     97               0.273967               7.455022               0.000000
 MO|     98               0.279305               7.600277               0.000000
 MO|     99               0.281619               7.663238               0.000000
 MO|    100               0.299981               8.162894               0.000000
 MO|    101               0.302313               8.226348               0.000000
 MO|    102               0.303611               8.261665               0.000000
 MO|    103               0.306567               8.342125               0.000000
 MO|    104               0.317350               8.635528               0.000000
 MO|    105               0.328676               8.943716               0.000000
 MO|    106               0.329825               8.974985               0.000000
 MO|    107               0.339762               9.245396               0.000000
 MO|    108               0.345169               9.392525               0.000000
 MO|    109               0.349979               9.523412               0.000000
 MO|    110               0.354385               9.643315               0.000000
 MO|    111               0.368337              10.022948               0.000000
 MO|    112               0.377478              10.271689               0.000000
 MO|    113               0.390232              10.618753               0.000000
 MO|    114               0.417410              11.358305               0.000000
 MO|    115               0.434774              11.830800               0.000000
 MO|    116               0.450054              12.246579               0.000000
 MO|    117               0.450059              12.246716               0.000000
 MO|    118               0.476029              12.953421               0.000000
 MO|    119               0.488163              13.283577               0.000000
 MO|    120               0.505089              13.744161               0.000000
 MO|    121               0.523457              14.244002               0.000000
 MO|    122               0.555212              15.108088               0.000000
 MO|    123               0.561452              15.277889               0.000000
 MO|    124               0.588916              16.025209               0.000000
 MO|    125               0.597382              16.255580               0.000000
 MO|    126               0.603527              16.422801               0.000000
 MO|    127               0.606293              16.498077               0.000000
 MO|    128               0.616742              16.782411               0.000000
 MO|    129               0.621294              16.906259               0.000000
 MO|    130               0.629141              17.119807               0.000000
 MO|    131               0.648311              17.641437               0.000000
 MO|    132               0.662752              18.034397               0.000000
 MO|    133               0.723790              19.695337               0.000000
 MO|    134               0.724266              19.708290               0.000000
 MO|    135               0.733400              19.956819               0.000000
 MO|    136               0.735583              20.016224               0.000000
 MO|    137               0.745967              20.298790               0.000000
 MO|    138               0.747676              20.345308               0.000000
 MO|    139               0.762825              20.757522               0.000000
 MO|    140               0.772698              21.026184               0.000000
 MO|    141               0.783157              21.310779               0.000000
 MO|    142               0.789231              21.476079               0.000000
 MO|    143               0.793490              21.591974               0.000000
 MO|    144               0.798006              21.714851               0.000000
 MO|    145               0.801602              21.812710               0.000000
 MO|    146               0.812375              22.105851               0.000000
 MO|    147               0.814287              22.157864               0.000000
 MO|    148               0.825523              22.463631               0.000000
 MO| Sum:                                                              96.000000
 MO| E(Fermi):           -0.061724 a.u.         -1.679599 eV
 MO| Band gap:            0.136471 a.u.          3.713557 eV

    18 Broy./Diag. 0.40E+00    0.2     0.00002014      -533.8400774211  7.55E-04
  Decoupling Energy:                                              -0.0000081902

 MO| EIGENVALUES AND OCCUPATION NUMBERS AFTER SCF STEP 18
 MO|
 MO|  Index      Eigenvalue [a.u.]        Eigenvalue [eV]             Occupation
 MO|      1              -9.792175            -266.458627               2.000000
 MO|      2              -9.792144            -266.457786               2.000000
 MO|      3              -9.791996            -266.453766               2.000000
 MO|      4              -9.791970            -266.453045               2.000000
 MO|      5              -9.786065            -266.292383               2.000000
 MO|      6              -9.786062            -266.292296               2.000000
 MO|      7              -9.785981            -266.290084               2.000000
 MO|      8              -9.785964            -266.289629               2.000000
 MO|      9              -9.781943            -266.180208               2.000000
 MO|     10              -9.781939            -266.180108               2.000000
 MO|     11              -9.781599            -266.170839               2.000000
 MO|     12              -9.781595            -266.170732               2.000000
 MO|     13              -9.781181            -266.159472               2.000000
 MO|     14              -9.781067            -266.156372               2.000000
 MO|     15              -0.816377             -22.214743               2.000000
 MO|     16              -0.779125             -21.201061               2.000000
 MO|     17              -0.736625             -20.044591               2.000000
 MO|     18              -0.735003             -20.000438               2.000000
 MO|     19              -0.680205             -18.509311               2.000000
 MO|     20              -0.675231             -18.373963               2.000000
 MO|     21              -0.638973             -17.387346               2.000000
 MO|     22              -0.598572             -16.287963               2.000000
 MO|     23              -0.565661             -15.392421               2.000000
 MO|     24              -0.550614             -14.982959               2.000000
 MO|     25              -0.534993             -14.557900               2.000000
 MO|     26              -0.483865             -13.166625               2.000000
 MO|     27              -0.470615             -12.806079               2.000000
 MO|     28              -0.457946             -12.461351               2.000000
 MO|     29              -0.412349             -11.220587               2.000000
 MO|     30              -0.407850             -11.098168               2.000000
 MO|     31              -0.407061             -11.076680               2.000000
 MO|     32              -0.406635             -11.065109               2.000000
 MO|     33              -0.399085             -10.859643               2.000000
 MO|     34              -0.371604             -10.111870               2.000000
 MO|     35              -0.369209             -10.046694               2.000000
 MO|     36              -0.366573              -9.974961               2.000000
 MO|     37              -0.350575              -9.539624               2.000000
 MO|     38              -0.348606              -9.486057               2.000000
 MO|     39              -0.324734              -8.836467               2.000000
 MO|     40              -0.315220              -8.577575               2.000000
 MO|     41              -0.306528              -8.341061               2.000000
 MO|     42              -0.295426              -8.038961               2.000000
 MO|     43              -0.287027              -7.810414               2.000000
 MO|     44              -0.274697              -7.474893               2.000000
 MO|     45              -0.224155              -6.099571               2.000000
 MO|     46              -0.221499              -6.027283               2.000000
 MO|     47              -0.205351              -5.587888               2.000000
 MO|     48              -0.187647              -5.106124               2.000000
 MO|     49              -0.051180              -1.392683               0.000000
 MO|     50              -0.027770              -0.755669               0.000000
 MO|     51              -0.025669              -0.698477               0.000000
 MO|     52              -0.015109              -0.411131               0.000000
 MO|     53              -0.001791              -0.048736               0.000000
 MO|     54               0.000458               0.012472               0.000000
 MO|     55               0.008299               0.225825               0.000000
 MO|     56               0.018888               0.513964               0.000000
 MO|     57               0.029191               0.794326               0.000000
 MO|     58               0.041211               1.121401               0.000000
 MO|     59               0.043765               1.190903               0.000000
 MO|     60               0.045596               1.240742               0.000000
 MO|     61               0.045680               1.243007               0.000000
 MO|     62               0.052823               1.437393               0.000000
 MO|     63               0.070182               1.909763               0.000000
 MO|     64               0.073034               1.987369               0.000000
 MO|     65               0.073598               2.002705               0.000000
 MO|     66               0.088831               2.417206               0.000000
 MO|     67               0.091887               2.500374               0.000000
 MO|     68               0.098367               2.676710               0.000000
 MO|     69               0.101507               2.762153               0.000000
 MO|     70               0.111733               3.040397               0.000000
 MO|     71               0.115948               3.155116               0.000000
 MO|     72               0.116258               3.163539               0.000000
 MO|     73               0.121158               3.296886               0.000000
 MO|     74               0.140379               3.819917               0.000000
 MO|     75               0.140798               3.831304               0.000000
 MO|     76               0.142972               3.890454               0.000000
 MO|     77               0.143409               3.902367               0.000000
 MO|     78               0.152122               4.139451               0.000000
 MO|     79               0.159307               4.334968               0.000000
 MO|     80               0.174314               4.743316               0.000000
 MO|     81               0.180115               4.901183               0.000000
 MO|     82               0.185183               5.039073               0.000000
 MO|     83               0.190646               5.187754               0.000000
 MO|     84               0.190807               5.192126               0.000000
 MO|     85               0.199482               5.428187               0.000000
 MO|     86               0.211535               5.756158               0.000000
 MO|     87               0.217772               5.925881               0.000000
 MO|     88               0.220761               6.007200               0.000000
 MO|     89               0.221902               6.038253               0.000000
 MO|     90               0.230802               6.280437               0.000000
 MO|     91               0.236801               6.443694               0.000000
 MO|     92               0.244214               6.645406               0.000000
 MO|     93               0.244721               6.659193               0.000000
 MO|     94               0.246744               6.714235               0.000000
 MO|     95               0.259798               7.069455               0.000000
 MO|     96               0.264420               7.195226               0.000000
 MO|     97               0.273969               7.455074               0.000000
 MO|     98               0.279299               7.600121               0.000000
 MO|     99               0.281609               7.662962               0.000000
 MO|    100               0.299976               8.162755               0.000000
 MO|    101               0.302322               8.226588               0.000000
 MO|    102               0.303591               8.261129               0.000000
 MO|    103               0.306533               8.341184               0.000000
 MO|    104               0.317302               8.634218               0.000000
 MO|    105               0.328668               8.943516               0.000000
 MO|    106               0.329819               8.974828               0.000000
 MO|    107               0.339751               9.245095               0.000000
 MO|    108               0.345182               9.392867               0.000000
 MO|    109               0.349973               9.523256               0.000000
 MO|    110               0.354386               9.643325               0.000000
 MO|    111               0.368342              10.023105               0.000000
 MO|    112               0.377495              10.272154               0.000000
 MO|    113               0.390200              10.617884               0.000000
 MO|    114               0.417410              11.358317               0.000000
 MO|    115               0.434771              11.830726               0.000000
 MO|    116               0.450056              12.246639               0.000000
 MO|    117               0.450096              12.247731               0.000000
 MO|    118               0.476027              12.953350               0.000000
 MO|    119               0.488169              13.283755               0.000000
 MO|    120               0.505082              13.743988               0.000000
 MO|    121               0.523441              14.243558               0.000000
 MO|    122               0.555214              15.108141               0.000000
 MO|    123               0.561456              15.277998               0.000000
 MO|    124               0.588927              16.025526               0.000000
 MO|    125               0.597342              16.254505               0.000000
 MO|    126               0.603540              16.423165               0.000000
 MO|    127               0.606288              16.497947               0.000000
 MO|    128               0.616748              16.782568               0.000000
 MO|    129               0.621294              16.906264               0.000000
 MO|    130               0.629101              17.118700               0.000000
 MO|    131               0.648312              17.641477               0.000000
 MO|    132               0.662759              18.034595               0.000000
 MO|    133               0.723792              19.695380               0.000000
 MO|    134               0.724241              19.707610               0.000000
 MO|    135               0.733389              19.956525               0.000000
 MO|    136               0.735593              20.016502               0.000000
 MO|    137               0.745964              20.298725               0.000000
 MO|    138               0.747682              20.345468               0.000000
 MO|    139               0.762828              20.757603               0.000000
 MO|    140               0.772680              21.025684               0.000000
 MO|    141               0.783153              21.310672               0.000000
 MO|    142               0.789243              21.476400               0.000000
 MO|    143               0.793497              21.592149               0.000000
 MO|    144               0.798005              21.714828               0.000000
 MO|    145               0.801614              21.813021               0.000000
 MO|    146               0.812384              22.106082               0.000000
 MO|    147               0.814287              22.157867               0.000000
 MO|    148               0.825522              22.463605               0.000000
 MO| Sum:                                                              96.000000
 MO| E(Fermi):           -0.061717 a.u.         -1.679391 eV
 MO| Band gap:            0.136466 a.u.          3.713441 eV

    19 Broy./Diag. 0.40E+00    0.2     0.00003692      -533.8399235120  1.54E-04
  Decoupling Energy:                                              -0.0000081810

 MO| EIGENVALUES AND OCCUPATION NUMBERS AFTER SCF STEP 19
 MO|
 MO|  Index      Eigenvalue [a.u.]        Eigenvalue [eV]             Occupation
 MO|      1              -9.792159            -266.458208               2.000000
 MO|      2              -9.792128            -266.457367               2.000000
 MO|      3              -9.791981            -266.453347               2.000000
 MO|      4              -9.791954            -266.452626               2.000000
 MO|      5              -9.786049            -266.291937               2.000000
 MO|      6              -9.786046            -266.291851               2.000000
 MO|      7              -9.785965            -266.289638               2.000000
 MO|      8              -9.785948            -266.289183               2.000000
 MO|      9              -9.781929            -266.179812               2.000000
 MO|     10              -9.781925            -266.179712               2.000000
 MO|     11              -9.781584            -266.170442               2.000000
 MO|     12              -9.781580            -266.170336               2.000000
 MO|     13              -9.781156            -266.158797               2.000000
 MO|     14              -9.781042            -266.155697               2.000000
 MO|     15              -0.816365             -22.214424               2.000000
 MO|     16              -0.779115             -21.200810               2.000000
 MO|     17              -0.736616             -20.044328               2.000000
 MO|     18              -0.734988             -20.000029               2.000000
 MO|     19              -0.680194             -18.509013               2.000000
 MO|     20              -0.675221             -18.373703               2.000000
 MO|     21              -0.638962             -17.387038               2.000000
 MO|     22              -0.598559             -16.287632               2.000000
 MO|     23              -0.565647             -15.392039               2.000000
 MO|     24              -0.550603             -14.982667               2.000000
 MO|     25              -0.534982             -14.557597               2.000000
 MO|     26              -0.483853             -13.166318               2.000000
 MO|     27              -0.470604             -12.805785               2.000000
 MO|     28              -0.457934             -12.461012               2.000000
 MO|     29              -0.412333             -11.220138               2.000000
 MO|     30              -0.407834             -11.097740               2.000000
 MO|     31              -0.407051             -11.076432               2.000000
 MO|     32              -0.406623             -11.064773               2.000000
 MO|     33              -0.399075             -10.859370               2.000000
 MO|     34              -0.371593             -10.111561               2.000000
 MO|     35              -0.369195             -10.046314               2.000000
 MO|     36              -0.366554              -9.974451               2.000000
 MO|     37              -0.350564              -9.539332               2.000000
 MO|     38              -0.348595              -9.485740               2.000000
 MO|     39              -0.324725              -8.836211               2.000000
 MO|     40              -0.315211              -8.577331               2.000000
 MO|     41              -0.306517              -8.340745               2.000000
 MO|     42              -0.295416              -8.038685               2.000000
 MO|     43              -0.287014              -7.810050               2.000000
 MO|     44              -0.274687              -7.474603               2.000000
 MO|     45              -0.224145              -6.099297               2.000000
 MO|     46              -0.221490              -6.027037               2.000000
 MO|     47              -0.205340              -5.587597               2.000000
 MO|     48              -0.187633              -5.105764               2.000000
 MO|     49              -0.051175              -1.392544               0.000000
 MO|     50              -0.027763              -0.755477               0.000000
 MO|     51              -0.025661              -0.698263               0.000000
 MO|     52              -0.015104              -0.411008               0.000000
 MO|     53              -0.001846              -0.050239               0.000000
 MO|     54               0.000394               0.010728               0.000000
 MO|     55               0.008267               0.224946               0.000000
 MO|     56               0.018838               0.512595               0.000000
 MO|     57               0.029148               0.793169               0.000000
 MO|     58               0.041163               1.120089               0.000000
 MO|     59               0.043707               1.189315               0.000000
 MO|     60               0.045544               1.239307               0.000000
 MO|     61               0.045639               1.241889               0.000000
 MO|     62               0.052747               1.435322               0.000000
 MO|     63               0.070141               1.908642               0.000000
 MO|     64               0.072992               1.986214               0.000000
 MO|     65               0.073564               2.001781               0.000000
 MO|     66               0.088751               2.415044               0.000000
 MO|     67               0.091827               2.498750               0.000000
 MO|     68               0.098328               2.675650               0.000000
 MO|     69               0.101494               2.761791               0.000000
 MO|     70               0.111691               3.039256               0.000000
 MO|     71               0.115921               3.154368               0.000000
 MO|     72               0.116246               3.163223               0.000000
 MO|     73               0.121108               3.295503               0.000000
 MO|     74               0.140359               3.819368               0.000000
 MO|     75               0.140741               3.829754               0.000000
 MO|     76               0.142865               3.887546               0.000000
 MO|     77               0.143397               3.902021               0.000000
 MO|     78               0.152038               4.137156               0.000000
 MO|     79               0.159274               4.334058               0.000000
 MO|     80               0.174292               4.742716               0.000000
 MO|     81               0.180082               4.900291               0.000000
 MO|     82               0.185125               5.037519               0.000000
 MO|     83               0.190578               5.185888               0.000000
 MO|     84               0.190717               5.189684               0.000000
 MO|     85               0.199435               5.426905               0.000000
 MO|     86               0.211510               5.755489               0.000000
 MO|     87               0.217655               5.922702               0.000000
 MO|     88               0.220606               6.002987               0.000000
 MO|     89               0.221813               6.035835               0.000000
 MO|     90               0.230788               6.280057               0.000000
 MO|     91               0.236803               6.443729               0.000000
 MO|     92               0.244200               6.645019               0.000000
 MO|     93               0.244711               6.658918               0.000000
 MO|     94               0.246643               6.711499               0.000000
 MO|     95               0.259717               7.067260               0.000000
 MO|     96               0.264307               7.192151               0.000000
 MO|     97               0.273927               7.453942               0.000000
 MO|     98               0.279277               7.599524               0.000000
 MO|     99               0.281571               7.661924               0.000000
 MO|    100               0.299950               8.162053               0.000000
 MO|    101               0.302304               8.226112               0.000000
 MO|    102               0.303526               8.259369               0.000000
 MO|    103               0.306465               8.339330               0.000000
 MO|    104               0.317224               8.632105               0.000000
 MO|    105               0.328632               8.942538               0.000000
 MO|    106               0.329793               8.974112               0.000000
 MO|    107               0.339731               9.244556               0.000000
 MO|    108               0.345175               9.392695               0.000000
 MO|    109               0.349949               9.522605               0.000000
 MO|    110               0.354371               9.642918               0.000000
 MO|    111               0.368323              10.022583               0.000000
 MO|    112               0.377465              10.271349               0.000000
 MO|    113               0.390122              10.615767               0.000000
 MO|    114               0.417395              11.357897               0.000000
 MO|    115               0.434755              11.830299               0.000000
 MO|    116               0.450037              12.246135               0.000000
 MO|    117               0.450083              12.247373               0.000000
 MO|    118               0.476015              12.953015               0.000000
 MO|    119               0.488160              13.283507               0.000000
 MO|    120               0.505051              13.743146               0.000000
 MO|    121               0.523386              14.242044               0.000000
 MO|    122               0.555187              15.107418               0.000000
 MO|    123               0.561453              15.277920               0.000000
 MO|    124               0.588920              16.025318               0.000000
 MO|    125               0.597291              16.253127               0.000000
 MO|    126               0.603546              16.423314               0.000000
 MO|    127               0.606278              16.497651               0.000000
 MO|    128               0.616725              16.781929               0.000000
 MO|    129               0.621280              16.905887               0.000000
 MO|    130               0.629050              17.117310               0.000000
 MO|    131               0.648312              17.641456               0.000000
 MO|    132               0.662754              18.034452               0.000000
 MO|    133               0.723786              19.695224               0.000000
 MO|    134               0.724205              19.706631               0.000000
 MO|    135               0.733364              19.955847               0.000000
 MO|    136               0.735603              20.016766               0.000000
 MO|    137               0.745956              20.298488               0.000000
 MO|    138               0.747679              20.345368               0.000000
 MO|    139               0.762823              20.757480               0.000000
 MO|    140               0.772652              21.024931               0.000000
 MO|    141               0.783109              21.309489               0.000000
 MO|    142               0.789233              21.476117               0.000000
 MO|    143               0.793487              21.591873               0.000000
 MO|    144               0.797986              21.714310               0.000000
 MO|    145               0.801626              21.813340               0.000000
 MO|    146               0.812383              22.106075               0.000000
 MO|    147               0.814280              22.157681               0.000000
 MO|    148               0.825517              22.463456               0.000000
 MO| Sum:                                                              96.000000
 MO| E(Fermi):           -0.061711 a.u.         -1.679253 eV
 MO| Band gap:            0.136458 a.u.          3.713219 eV

    20 Broy./Diag. 0.40E+00    0.2     0.00006034      -533.8401981022 -2.75E-04
  Decoupling Energy:                                              -0.0000081702

 MO| EIGENVALUES AND OCCUPATION NUMBERS AFTER SCF STEP 20
 MO|
 MO|  Index      Eigenvalue [a.u.]        Eigenvalue [eV]             Occupation
 MO|      1              -9.792145            -266.457828               2.000000
 MO|      2              -9.792114            -266.456986               2.000000
 MO|      3              -9.791967            -266.452966               2.000000
 MO|      4              -9.791940            -266.452246               2.000000
 MO|      5              -9.786037            -266.291616               2.000000
 MO|      6              -9.786034            -266.291529               2.000000
 MO|      7              -9.785953            -266.289317               2.000000
 MO|      8              -9.785936            -266.288861               2.000000
 MO|      9              -9.781918            -266.179535               2.000000
 MO|     10              -9.781915            -266.179434               2.000000
 MO|     11              -9.781574            -266.170163               2.000000
 MO|     12              -9.781570            -266.170058               2.000000
 MO|     13              -9.781140            -266.158357               2.000000
 MO|     14              -9.781026            -266.155256               2.000000
 MO|     15              -0.816353             -22.214100               2.000000
 MO|     16              -0.779105             -21.200512               2.000000
 MO|     17              -0.736604             -20.044025               2.000000
 MO|     18              -0.734974             -19.999659               2.000000
 MO|     19              -0.680182             -18.508681               2.000000
 MO|     20              -0.675210             -18.373393               2.000000
 MO|     21              -0.638949             -17.386698               2.000000
 MO|     22              -0.598547             -16.287292               2.000000
 MO|     23              -0.565633             -15.391669               2.000000
 MO|     24              -0.550590             -14.982328               2.000000
 MO|     25              -0.534969             -14.557253               2.000000
 MO|     26              -0.483841             -13.165972               2.000000
 MO|     27              -0.470592             -12.805454               2.000000
 MO|     28              -0.457921             -12.460655               2.000000
 MO|     29              -0.412318             -11.219744               2.000000
 MO|     30              -0.407822             -11.097392               2.000000
 MO|     31              -0.407040             -11.076124               2.000000
 MO|     32              -0.406609             -11.064402               2.000000
 MO|     33              -0.399062             -10.859042               2.000000
 MO|     34              -0.371581             -10.111223               2.000000
 MO|     35              -0.369182             -10.045945               2.000000
 MO|     36              -0.366540              -9.974066               2.000000
 MO|     37              -0.350552              -9.539007               2.000000
 MO|     38              -0.348582              -9.485397               2.000000
 MO|     39              -0.324714              -8.835926               2.000000
 MO|     40              -0.315199              -8.577014               2.000000
 MO|     41              -0.306504              -8.340393               2.000000
 MO|     42              -0.295405              -8.038388               2.000000
 MO|     43              -0.287001              -7.809687               2.000000
 MO|     44              -0.274674              -7.474271               2.000000
 MO|     45              -0.224134              -6.099005               2.000000
 MO|     46              -0.221479              -6.026758               2.000000
 MO|     47              -0.205329              -5.587293               2.000000
 MO|     48              -0.187621              -5.105440               2.000000
 MO|     49              -0.051168              -1.392365               0.000000
 MO|     50              -0.027755              -0.755247               0.000000
 MO|     51              -0.025651              -0.698010               0.000000
 MO|     52              -0.015098              -0.410841               0.000000
 MO|     53              -0.001876              -0.051041               0.000000
 MO|     54               0.000353               0.009606               0.000000
 MO|     55               0.008248               0.224449               0.000000
 MO|     56               0.018818               0.512053               0.000000
 MO|     57               0.029111               0.792146               0.000000
 MO|     58               0.041137               1.119383               0.000000
 MO|     59               0.043681               1.188608               0.000000
 MO|     60               0.045512               1.238439               0.000000
 MO|     61               0.045603               1.240910               0.000000
 MO|     62               0.052720               1.434580               0.000000
 MO|     63               0.070105               1.907646               0.000000
 MO|     64               0.072977               1.985794               0.000000
 MO|     65               0.073547               2.001313               0.000000
 MO|     66               0.088707               2.413830               0.000000
 MO|     67               0.091803               2.498098               0.000000
 MO|     68               0.098305               2.675027               0.000000
 MO|     69               0.101486               2.761577               0.000000
 MO|     70               0.111667               3.038623               0.000000
 MO|     71               0.115907               3.153985               0.000000
 MO|     72               0.116242               3.163100               0.000000
 MO|     73               0.121075               3.294612               0.000000
 MO|     74               0.140343               3.818934               0.000000
 MO|     75               0.140711               3.828954               0.000000
 MO|     76               0.142815               3.886200               0.000000
 MO|     77               0.143387               3.901756               0.000000
 MO|     78               0.151992               4.135906               0.000000
 MO|     79               0.159246               4.333303               0.000000
 MO|     80               0.174271               4.742153               0.000000
 MO|     81               0.180048               4.899349               0.000000
 MO|     82               0.185089               5.036533               0.000000
 MO|     83               0.190531               5.184614               0.000000
 MO|     84               0.190665               5.188263               0.000000
 MO|     85               0.199406               5.426105               0.000000
 MO|     86               0.211491               5.754964               0.000000
 MO|     87               0.217582               5.920702               0.000000
 MO|     88               0.220508               6.000335               0.000000
 MO|     89               0.221754               6.034241               0.000000
 MO|     90               0.230764               6.279394               0.000000
 MO|     91               0.236806               6.443811               0.000000
 MO|     92               0.244192               6.644811               0.000000
 MO|     93               0.244684               6.658189               0.000000
 MO|     94               0.246581               6.709804               0.000000
 MO|     95               0.259649               7.065412               0.000000
 MO|     96               0.264234               7.190182               0.000000
 MO|     97               0.273883               7.452725               0.000000
 MO|     98               0.279266               7.599207               0.000000
 MO|     99               0.281543               7.661173               0.000000
 MO|    100               0.299931               8.161532               0.000000
 MO|    101               0.302279               8.225419               0.000000
 MO|    102               0.303474               8.257952               0.000000
 MO|    103               0.306428               8.338319               0.000000
 MO|    104               0.317177               8.630821               0.000000
 MO|    105               0.328602               8.941723               0.000000
 MO|    106               0.329776               8.973648               0.000000
 MO|    107               0.339723               9.244336               0.000000
 MO|    108               0.345157               9.392199               0.000000
 MO|    109               0.349938               9.522296               0.000000
 MO|    110               0.354358               9.642572               0.000000
 MO|    111               0.368303              10.022045               0.000000
 MO|    112               0.377413              10.269928               0.000000
 MO|    113               0.390068              10.614293               0.000000
 MO|    114               0.417385              11.357614               0.000000
 MO|    115               0.434749              11.830115               0.000000
 MO|    116               0.450009              12.245362               0.000000
 MO|    117               0.450025              12.245808               0.000000
 MO|    118               0.476007              12.952804               0.000000
 MO|    119               0.488145              13.283096               0.000000
 MO|    120               0.505028              13.742499               0.000000
 MO|    121               0.523345              14.240938               0.000000
 MO|    122               0.555162              15.106735               0.000000
 MO|    123               0.561453              15.277923               0.000000
 MO|    124               0.588908              16.025000               0.000000
 MO|    125               0.597277              16.252734               0.000000
 MO|    126               0.603545              16.423295               0.000000
 MO|    127               0.606278              16.497667               0.000000
 MO|    128               0.616703              16.781331               0.000000
 MO|    129               0.621271              16.905641               0.000000
 MO|    130               0.629034              17.116880               0.000000
 MO|    131               0.648316              17.641575               0.000000
 MO|    132               0.662749              18.034315               0.000000
 MO|    133               0.723785              19.695200               0.000000
 MO|    134               0.724194              19.706328               0.000000
 MO|    135               0.733352              19.955521               0.000000
 MO|    136               0.735609              20.016945               0.000000
 MO|    137               0.745956              20.298482               0.000000
 MO|    138               0.747677              20.345337               0.000000
 MO|    139               0.762822              20.757445               0.000000
 MO|    140               0.772643              21.024686               0.000000
 MO|    141               0.783065              21.308283               0.000000
 MO|    142               0.789212              21.475564               0.000000
 MO|    143               0.793470              21.591426               0.000000
 MO|    144               0.797965              21.713726               0.000000
 MO|    145               0.801634              21.813573               0.000000
 MO|    146               0.812382              22.106038               0.000000
 MO|    147               0.814279              22.157656               0.000000
 MO|    148               0.825516              22.463443               0.000000
 MO| Sum:                                                              96.000000
 MO| E(Fermi):           -0.061705 a.u.         -1.679073 eV
 MO| Band gap:            0.136453 a.u.          3.713075 eV

    21 Broy./Diag. 0.40E+00    0.2     0.00003378      -533.8403683896 -1.70E-04
  Decoupling Energy:                                              -0.0000081495

 MO| EIGENVALUES AND OCCUPATION NUMBERS AFTER SCF STEP 21
 MO|
 MO|  Index      Eigenvalue [a.u.]        Eigenvalue [eV]             Occupation
 MO|      1              -9.792126            -266.457300               2.000000
 MO|      2              -9.792095            -266.456459               2.000000
 MO|      3              -9.791947            -266.452439               2.000000
 MO|      4              -9.791921            -266.451718               2.000000
 MO|      5              -9.786019            -266.291119               2.000000
 MO|      6              -9.786016            -266.291032               2.000000
 MO|      7              -9.785935            -266.288820               2.000000
 MO|      8              -9.785918            -266.288364               2.000000
 MO|      9              -9.781901            -266.179075               2.000000
 MO|     10              -9.781898            -266.178975               2.000000
 MO|     11              -9.781557            -266.169704               2.000000
 MO|     12              -9.781553            -266.169599               2.000000
 MO|     13              -9.781122            -266.157878               2.000000
 MO|     14              -9.781008            -266.154776               2.000000
 MO|     15              -0.816333             -22.213543               2.000000
 MO|     16              -0.779084             -21.199964               2.000000
 MO|     17              -0.736585             -20.043485               2.000000
 MO|     18              -0.734954             -19.999104               2.000000
 MO|     19              -0.680161             -18.508123               2.000000
 MO|     20              -0.675190             -18.372851               2.000000
 MO|     21              -0.638929             -17.386145               2.000000
 MO|     22              -0.598527             -16.286753               2.000000
 MO|     23              -0.565613             -15.391106               2.000000
 MO|     24              -0.550570             -14.981780               2.000000
 MO|     25              -0.534949             -14.556691               2.000000
 MO|     26              -0.483821             -13.165431               2.000000
 MO|     27              -0.470572             -12.804913               2.000000
 MO|     28              -0.457900             -12.460099               2.000000
 MO|     29              -0.412297             -11.219183               2.000000
 MO|     30              -0.407802             -11.096847               2.000000
 MO|     31              -0.407021             -11.075592               2.000000
 MO|     32              -0.406589             -11.063847               2.000000
 MO|     33              -0.399042             -10.858495               2.000000
 MO|     34              -0.371560             -10.110674               2.000000
 MO|     35              -0.369161             -10.045381               2.000000
 MO|     36              -0.366520              -9.973523               2.000000
 MO|     37              -0.350532              -9.538465               2.000000
 MO|     38              -0.348562              -9.484856               2.000000
 MO|     39              -0.324695              -8.835388               2.000000
 MO|     40              -0.315180              -8.576490               2.000000
 MO|     41              -0.306483              -8.339838               2.000000
 MO|     42              -0.295386              -8.037860               2.000000
 MO|     43              -0.286980              -7.809128               2.000000
 MO|     44              -0.274655              -7.473734               2.000000
 MO|     45              -0.224114              -6.098465               2.000000
 MO|     46              -0.221460              -6.026227               2.000000
 MO|     47              -0.205309              -5.586755               2.000000
 MO|     48              -0.187602              -5.104903               2.000000
 MO|     49              -0.051152              -1.391928               0.000000
 MO|     50              -0.027737              -0.754764               0.000000
 MO|     51              -0.025633              -0.697511               0.000000
 MO|     52              -0.015083              -0.410423               0.000000
 MO|     53              -0.001886              -0.051320               0.000000
 MO|     54               0.000333               0.009062               0.000000
 MO|     55               0.008244               0.224330               0.000000
 MO|     56               0.018817               0.512026               0.000000
 MO|     57               0.029089               0.791547               0.000000
 MO|     58               0.041129               1.119180               0.000000
 MO|     59               0.043677               1.188517               0.000000
 MO|     60               0.045500               1.238116               0.000000
 MO|     61               0.045582               1.240351               0.000000
 MO|     62               0.052717               1.434492               0.000000
 MO|     63               0.070085               1.907123               0.000000
 MO|     64               0.072976               1.985783               0.000000
 MO|     65               0.073545               2.001264               0.000000
 MO|     66               0.088688               2.413332               0.000000
 MO|     67               0.091799               2.497971               0.000000
 MO|     68               0.098298               2.674815               0.000000
 MO|     69               0.101491               2.761706               0.000000
 MO|     70               0.111660               3.038423               0.000000
 MO|     71               0.115906               3.153960               0.000000
 MO|     72               0.116249               3.163283               0.000000
 MO|     73               0.121062               3.294267               0.000000
 MO|     74               0.140341               3.818874               0.000000
 MO|     75               0.140701               3.828668               0.000000
 MO|     76               0.142798               3.885729               0.000000
 MO|     77               0.143390               3.901827               0.000000
 MO|     78               0.151970               4.135325               0.000000
 MO|     79               0.159234               4.332975               0.000000
 MO|     80               0.174265               4.742003               0.000000
 MO|     81               0.180029               4.898845               0.000000
 MO|     82               0.185071               5.036042               0.000000
 MO|     83               0.190507               5.183964               0.000000
 MO|     84               0.190641               5.187612               0.000000
 MO|     85               0.199394               5.425779               0.000000
 MO|     86               0.211489               5.754896               0.000000
 MO|     87               0.217540               5.919574               0.000000
 MO|     88               0.220451               5.998770               0.000000
 MO|     89               0.221724               6.033428               0.000000
 MO|     90               0.230752               6.279081               0.000000
 MO|     91               0.236819               6.444168               0.000000
 MO|     92               0.244199               6.644988               0.000000
 MO|     93               0.244669               6.657785               0.000000
 MO|     94               0.246547               6.708895               0.000000
 MO|     95               0.259607               7.064279               0.000000
 MO|     96               0.264193               7.189061               0.000000
 MO|     97               0.273859               7.452069               0.000000
 MO|     98               0.279268               7.599275               0.000000
 MO|     99               0.281533               7.660912               0.000000
 MO|    100               0.299930               8.161508               0.000000
 MO|    101               0.302269               8.225148               0.000000
 MO|    102               0.303445               8.257164               0.000000
 MO|    103               0.306411               8.337878               0.000000
 MO|    104               0.317154               8.630207               0.000000
 MO|    105               0.328588               8.941347               0.000000
 MO|    106               0.329776               8.973654               0.000000
 MO|    107               0.339728               9.244480               0.000000
 MO|    108               0.345151               9.392023               0.000000
 MO|    109               0.349943               9.522431               0.000000
 MO|    110               0.354358               9.642572               0.000000
 MO|    111               0.368298              10.021900               0.000000
 MO|    112               0.377376              10.268932               0.000000
 MO|    113               0.390037              10.613438               0.000000
 MO|    114               0.417388              11.357707               0.000000
 MO|    115               0.434755              11.830286               0.000000
 MO|    116               0.449951              12.243800               0.000000
 MO|    117               0.450030              12.245935               0.000000
 MO|    118               0.476011              12.952912               0.000000
 MO|    119               0.488143              13.283039               0.000000
 MO|    120               0.505022              13.742348               0.000000
 MO|    121               0.523328              14.240471               0.000000
 MO|    122               0.555153              15.106483               0.000000
 MO|    123               0.561465              15.278232               0.000000
 MO|    124               0.588908              16.025010               0.000000
 MO|    125               0.597284              16.252935               0.000000
 MO|    126               0.603555              16.423556               0.000000
 MO|    127               0.606291              16.498030               0.000000
 MO|    128               0.616696              16.781143               0.000000
 MO|    129               0.621275              16.905757               0.000000
 MO|    130               0.629040              17.117036               0.000000
 MO|    131               0.648331              17.641984               0.000000
 MO|    132               0.662755              18.034488               0.000000
 MO|    133               0.723796              19.695486               0.000000
 MO|    134               0.724200              19.706489               0.000000
 MO|    135               0.733355              19.955605               0.000000
 MO|    136               0.735624              20.017340               0.000000
 MO|    137               0.745967              20.298802               0.000000
 MO|    138               0.747687              20.345609               0.000000
 MO|    139               0.762832              20.757710               0.000000
 MO|    140               0.772650              21.024888               0.000000
 MO|    141               0.783044              21.307698               0.000000
 MO|    142               0.789205              21.475358               0.000000
 MO|    143               0.793467              21.591338               0.000000
 MO|    144               0.797958              21.713537               0.000000
 MO|    145               0.801651              21.814025               0.000000
 MO|    146               0.812391              22.106290               0.000000
 MO|    147               0.814289              22.157938               0.000000
 MO|    148               0.825527              22.463725               0.000000
 MO| Sum:                                                              96.000000
 MO| E(Fermi):           -0.061689 a.u.         -1.678636 eV
 MO| Band gap:            0.136449 a.u.          3.712975 eV

    22 Broy./Diag. 0.40E+00    0.2     0.00001507      -533.8404451873 -7.68E-05
  Decoupling Energy:                                              -0.0000081292

 MO| EIGENVALUES AND OCCUPATION NUMBERS AFTER SCF STEP 22
 MO|
 MO|  Index      Eigenvalue [a.u.]        Eigenvalue [eV]             Occupation
 MO|      1              -9.792106            -266.456768               2.000000
 MO|      2              -9.792076            -266.455926               2.000000
 MO|      3              -9.791928            -266.451906               2.000000
 MO|      4              -9.791901            -266.451186               2.000000
 MO|      5              -9.785999            -266.290577               2.000000
 MO|      6              -9.785996            -266.290490               2.000000
 MO|      7              -9.785915            -266.288278               2.000000
 MO|      8              -9.785898            -266.287823               2.000000
 MO|      9              -9.781883            -266.178566               2.000000
 MO|     10              -9.781879            -266.178466               2.000000
 MO|     11              -9.781538            -266.169194               2.000000
 MO|     12              -9.781534            -266.169090               2.000000
 MO|     13              -9.781102            -266.157310               2.000000
 MO|     14              -9.780988            -266.154208               2.000000
 MO|     15              -0.816312             -22.212966               2.000000
 MO|     16              -0.779064             -21.199409               2.000000
 MO|     17              -0.736564             -20.042938               2.000000
 MO|     18              -0.734932             -19.998529               2.000000
 MO|     19              -0.680141             -18.507567               2.000000
 MO|     20              -0.675170             -18.372309               2.000000
 MO|     21              -0.638909             -17.385595               2.000000
 MO|     22              -0.598507             -16.286209               2.000000
 MO|     23              -0.565592             -15.390542               2.000000
 MO|     24              -0.550550             -14.981239               2.000000
 MO|     25              -0.534928             -14.556142               2.000000
 MO|     26              -0.483801             -13.164903               2.000000
 MO|     27              -0.470552             -12.804374               2.000000
 MO|     28              -0.457880             -12.459551               2.000000
 MO|     29              -0.412277             -11.218615               2.000000
 MO|     30              -0.407780             -11.096266               2.000000
 MO|     31              -0.407001             -11.075067               2.000000
 MO|     32              -0.406569             -11.063314               2.000000
 MO|     33              -0.399022             -10.857954               2.000000
 MO|     34              -0.371541             -10.110132               2.000000
 MO|     35              -0.369140             -10.044818               2.000000
 MO|     36              -0.366499              -9.972943               2.000000
 MO|     37              -0.350512              -9.537916               2.000000
 MO|     38              -0.348542              -9.484321               2.000000
 MO|     39              -0.324674              -8.834836               2.000000
 MO|     40              -0.315162              -8.575983               2.000000
 MO|     41              -0.306464              -8.339300               2.000000
 MO|     42              -0.295366              -8.037321               2.000000
 MO|     43              -0.286960              -7.808572               2.000000
 MO|     44              -0.274635              -7.473200               2.000000
 MO|     45              -0.224094              -6.097912               2.000000
 MO|     46              -0.221440              -6.025680               2.000000
 MO|     47              -0.205289              -5.586205               2.000000
 MO|     48              -0.187581              -5.104344               2.000000
 MO|     49              -0.051134              -1.391424               0.000000
 MO|     50              -0.027718              -0.754244               0.000000
 MO|     51              -0.025614              -0.696989               0.000000
 MO|     52              -0.015065              -0.409927               0.000000
 MO|     53              -0.001881              -0.051180               0.000000
 MO|     54               0.000334               0.009095               0.000000
 MO|     55               0.008247               0.224409               0.000000
 MO|     56               0.018826               0.512273               0.000000
 MO|     57               0.029081               0.791339               0.000000
 MO|     58               0.041138               1.119416               0.000000
 MO|     59               0.043688               1.188818               0.000000
 MO|     60               0.045502               1.238178               0.000000
 MO|     61               0.045575               1.240165               0.000000
 MO|     62               0.052729               1.434825               0.000000
 MO|     63               0.070082               1.907036               0.000000
 MO|     64               0.072983               1.985972               0.000000
 MO|     65               0.073552               2.001445               0.000000
 MO|     66               0.088692               2.413438               0.000000
 MO|     67               0.091806               2.498179               0.000000
 MO|     68               0.098302               2.674939               0.000000
 MO|     69               0.101502               2.762007               0.000000
 MO|     70               0.111665               3.038557               0.000000
 MO|     71               0.115911               3.154109               0.000000
 MO|     72               0.116260               3.163601               0.000000
 MO|     73               0.121065               3.294343               0.000000
 MO|     74               0.140348               3.819056               0.000000
 MO|     75               0.140705               3.828791               0.000000
 MO|     76               0.142808               3.886006               0.000000
 MO|     77               0.143399               3.902093               0.000000
 MO|     78               0.151972               4.135369               0.000000
 MO|     79               0.159234               4.332987               0.000000
 MO|     80               0.174273               4.742199               0.000000
 MO|     81               0.180026               4.898760               0.000000
 MO|     82               0.185071               5.036045               0.000000
 MO|     83               0.190509               5.184001               0.000000
 MO|     84               0.190644               5.187679               0.000000
 MO|     85               0.199396               5.425848               0.000000
 MO|     86               0.211498               5.755151               0.000000
 MO|     87               0.217534               5.919414               0.000000
 MO|     88               0.220439               5.998461               0.000000
 MO|     89               0.221724               6.033407               0.000000
 MO|     90               0.230753               6.279112               0.000000
 MO|     91               0.236835               6.444612               0.000000
 MO|     92               0.244213               6.645386               0.000000
 MO|     93               0.244669               6.657778               0.000000
 MO|     94               0.246546               6.708857               0.000000
 MO|     95               0.259600               7.064062               0.000000
 MO|     96               0.264189               7.188953               0.000000
 MO|     97               0.273857               7.452018               0.000000
 MO|     98               0.279279               7.599557               0.000000
 MO|     99               0.281539               7.661062               0.000000
 MO|    100               0.299943               8.161864               0.000000
 MO|    101               0.302273               8.225263               0.000000
 MO|    102               0.303441               8.257050               0.000000
 MO|    103               0.306413               8.337919               0.000000
 MO|    104               0.317158               8.630308               0.000000
 MO|    105               0.328590               8.941384               0.000000
 MO|    106               0.329788               8.973995               0.000000
 MO|    107               0.339742               9.244863               0.000000
 MO|    108               0.345156               9.392165               0.000000
 MO|    109               0.349957               9.522805               0.000000
 MO|    110               0.354367               9.642819               0.000000
 MO|    111               0.368303              10.022036               0.000000
 MO|    112               0.377363              10.268581               0.000000
 MO|    113               0.390030              10.613262               0.000000
 MO|    114               0.417400              11.358042               0.000000
 MO|    115               0.434768              11.830641               0.000000
 MO|    116               0.449930              12.243228               0.000000
 MO|    117               0.450045              12.246358               0.000000
 MO|    118               0.476024              12.953268               0.000000
 MO|    119               0.488153              13.283315               0.000000
 MO|    120               0.505031              13.742586               0.000000
 MO|    121               0.523331              14.240564               0.000000
 MO|    122               0.555158              15.106607               0.000000
 MO|    123               0.561481              15.278687               0.000000
 MO|    124               0.588917              16.025257               0.000000
 MO|    125               0.597304              16.253465               0.000000
 MO|    126               0.603570              16.423972               0.000000
 MO|    127               0.606309              16.498513               0.000000
 MO|    128               0.616700              16.781264               0.000000
 MO|    129               0.621288              16.906098               0.000000
 MO|    130               0.629059              17.117561               0.000000
 MO|    131               0.648350              17.642488               0.000000
 MO|    132               0.662768              18.034846               0.000000
 MO|    133               0.723812              19.695913               0.000000
 MO|    134               0.724216              19.706923               0.000000
 MO|    135               0.733368              19.955957               0.000000
 MO|    136               0.735641              20.017815               0.000000
 MO|    137               0.745984              20.299258               0.000000
 MO|    138               0.747702              20.346012               0.000000
 MO|    139               0.762847              20.758124               0.000000
 MO|    140               0.772668              21.025361               0.000000
 MO|    141               0.783045              21.307751               0.000000
 MO|    142               0.789210              21.475502               0.000000
 MO|    143               0.793476              21.591584               0.000000
 MO|    144               0.797964              21.713708               0.000000
 MO|    145               0.801670              21.814560               0.000000
 MO|    146               0.812406              22.106703               0.000000
 MO|    147               0.814305              22.158360               0.000000
 MO|    148               0.825543              22.464166               0.000000
 MO| Sum:                                                              96.000000
 MO| E(Fermi):           -0.061670 a.u.         -1.678132 eV
 MO| Band gap:            0.136447 a.u.          3.712920 eV

    23 Broy./Diag. 0.40E+00    0.2     0.00000794      -533.8404809758 -3.58E-05
  Decoupling Energy:                                              -0.0000081221

 MO| EIGENVALUES AND OCCUPATION NUMBERS AFTER SCF STEP 23
 MO|
 MO|  Index      Eigenvalue [a.u.]        Eigenvalue [eV]             Occupation
 MO|      1              -9.792099            -266.456561               2.000000
 MO|      2              -9.792068            -266.455720               2.000000
 MO|      3              -9.791920            -266.451699               2.000000
 MO|      4              -9.791894            -266.450979               2.000000
 MO|      5              -9.785991            -266.290368               2.000000
 MO|      6              -9.785988            -266.290281               2.000000
 MO|      7              -9.785907            -266.288069               2.000000
 MO|      8              -9.785890            -266.287614               2.000000
 MO|      9              -9.781876            -266.178374               2.000000
 MO|     10              -9.781872            -266.178274               2.000000
 MO|     11              -9.781531            -266.169002               2.000000
 MO|     12              -9.781527            -266.168898               2.000000
 MO|     13              -9.781092            -266.157043               2.000000
 MO|     14              -9.780978            -266.153940               2.000000
 MO|     15              -0.816304             -22.212771               2.000000
 MO|     16              -0.779057             -21.199233               2.000000
 MO|     17              -0.736558             -20.042761               2.000000
 MO|     18              -0.734925             -19.998316               2.000000
 MO|     19              -0.680134             -18.507384               2.000000
 MO|     20              -0.675164             -18.372134               2.000000
 MO|     21              -0.638902             -17.385411               2.000000
 MO|     22              -0.598500             -16.286020               2.000000
 MO|     23              -0.565585             -15.390342               2.000000
 MO|     24              -0.550544             -14.981059               2.000000
 MO|     25              -0.534922             -14.555964               2.000000
 MO|     26              -0.483795             -13.164727               2.000000
 MO|     27              -0.470546             -12.804196               2.000000
 MO|     28              -0.457873             -12.459365               2.000000
 MO|     29              -0.412269             -11.218404               2.000000
 MO|     30              -0.407772             -11.096051               2.000000
 MO|     31              -0.406995             -11.074902               2.000000
 MO|     32              -0.406563             -11.063136               2.000000
 MO|     33              -0.399016             -10.857778               2.000000
 MO|     34              -0.371534             -10.109953               2.000000
 MO|     35              -0.369133             -10.044621               2.000000
 MO|     36              -0.366491              -9.972715               2.000000
 MO|     37              -0.350505              -9.537733               2.000000
 MO|     38              -0.348536              -9.484141               2.000000
 MO|     39              -0.324668              -8.834659               2.000000
 MO|     40              -0.315156              -8.575825               2.000000
 MO|     41              -0.306457              -8.339123               2.000000
 MO|     42              -0.295360              -8.037144               2.000000
 MO|     43              -0.286953              -7.808379               2.000000
 MO|     44              -0.274629              -7.473023               2.000000
 MO|     45              -0.224087              -6.097731               2.000000
 MO|     46              -0.221433              -6.025505               2.000000
 MO|     47              -0.205283              -5.586022               2.000000
 MO|     48              -0.187574              -5.104146               2.000000
 MO|     49              -0.051127              -1.391230               0.000000
 MO|     50              -0.027711              -0.754063               0.000000
 MO|     51              -0.025607              -0.696815               0.000000
 MO|     52              -0.015057              -0.409726               0.000000
 MO|     53              -0.001873              -0.050970               0.000000
 MO|     54               0.000343               0.009325               0.000000
 MO|     55               0.008249               0.224476               0.000000
 MO|     56               0.018833               0.512463               0.000000
 MO|     57               0.029081               0.791340               0.000000
 MO|     58               0.041148               1.119694               0.000000
 MO|     59               0.043696               1.189033               0.000000
 MO|     60               0.045507               1.238302               0.000000
 MO|     61               0.045576               1.240188               0.000000
 MO|     62               0.052740               1.435141               0.000000
 MO|     63               0.070085               1.907118               0.000000
 MO|     64               0.072989               1.986140               0.000000
 MO|     65               0.073556               2.001567               0.000000
 MO|     66               0.088700               2.413653               0.000000
 MO|     67               0.091815               2.498419               0.000000
 MO|     68               0.098309               2.675122               0.000000
 MO|     69               0.101507               2.762139               0.000000
 MO|     70               0.111672               3.038743               0.000000
 MO|     71               0.115915               3.154194               0.000000
 MO|     72               0.116266               3.163762               0.000000
 MO|     73               0.121071               3.294496               0.000000
 MO|     74               0.140352               3.819182               0.000000
 MO|     75               0.140714               3.829032               0.000000
 MO|     76               0.142824               3.886432               0.000000
 MO|     77               0.143404               3.902227               0.000000
 MO|     78               0.151982               4.135647               0.000000
 MO|     79               0.159237               4.333056               0.000000
 MO|     80               0.174278               4.742335               0.000000
 MO|     81               0.180027               4.898794               0.000000
 MO|     82               0.185079               5.036259               0.000000
 MO|     83               0.190518               5.184270               0.000000
 MO|     84               0.190654               5.187954               0.000000
 MO|     85               0.199404               5.426050               0.000000
 MO|     86               0.211505               5.755340               0.000000
 MO|     87               0.217547               5.919757               0.000000
 MO|     88               0.220452               5.998799               0.000000
 MO|     89               0.221732               6.033636               0.000000
 MO|     90               0.230755               6.279163               0.000000
 MO|     91               0.236841               6.444775               0.000000
 MO|     92               0.244221               6.645580               0.000000
 MO|     93               0.244671               6.657835               0.000000
 MO|     94               0.246560               6.709229               0.000000
 MO|     95               0.259608               7.064301               0.000000
 MO|     96               0.264204               7.189347               0.000000
 MO|     97               0.273860               7.452113               0.000000
 MO|     98               0.279284               7.599699               0.000000
 MO|     99               0.281545               7.661225               0.000000
 MO|    100               0.299951               8.162081               0.000000
 MO|    101               0.302278               8.225400               0.000000
 MO|    102               0.303446               8.257184               0.000000
 MO|    103               0.306420               8.338115               0.000000
 MO|    104               0.317170               8.630643               0.000000
 MO|    105               0.328594               8.941507               0.000000
 MO|    106               0.329796               8.974195               0.000000
 MO|    107               0.339750               9.245077               0.000000
 MO|    108               0.345160               9.392272               0.000000
 MO|    109               0.349964               9.523014               0.000000
 MO|    110               0.354373               9.642977               0.000000
 MO|    111               0.368307              10.022137               0.000000
 MO|    112               0.377363              10.268564               0.000000
 MO|    113               0.390038              10.613460               0.000000
 MO|    114               0.417406              11.358203               0.000000
 MO|    115               0.434775              11.830818               0.000000
 MO|    116               0.449929              12.243182               0.000000
 MO|    117               0.450054              12.246587               0.000000
 MO|    118               0.476032              12.953479               0.000000
 MO|    119               0.488159              13.283493               0.000000
 MO|    120               0.505037              13.742762               0.000000
 MO|    121               0.523337              14.240735               0.000000
 MO|    122               0.555162              15.106717               0.000000
 MO|    123               0.561488              15.278872               0.000000
 MO|    124               0.588922              16.025374               0.000000
 MO|    125               0.597314              16.253741               0.000000
 MO|    126               0.603576              16.424139               0.000000
 MO|    127               0.606317              16.498724               0.000000
 MO|    128               0.616703              16.781353               0.000000
 MO|    129               0.621294              16.906281               0.000000
 MO|    130               0.629069              17.117845               0.000000
 MO|    131               0.648357              17.642684               0.000000
 MO|    132               0.662774              18.035008               0.000000
 MO|    133               0.723819              19.696108               0.000000
 MO|    134               0.724225              19.707170               0.000000
 MO|    135               0.733375              19.956155               0.000000
 MO|    136               0.735648              20.018002               0.000000
 MO|    137               0.745992              20.299462               0.000000
 MO|    138               0.747708              20.346160               0.000000
 MO|    139               0.762854              20.758319               0.000000
 MO|    140               0.772677              21.025606               0.000000
 MO|    141               0.783051              21.307907               0.000000
 MO|    142               0.789214              21.475600               0.000000
 MO|    143               0.793482              21.591748               0.000000
 MO|    144               0.797969              21.713848               0.000000
 MO|    145               0.801678              21.814775               0.000000
 MO|    146               0.812413              22.106892               0.000000
 MO|    147               0.814312              22.158552               0.000000
 MO|    148               0.825550              22.464371               0.000000
 MO| Sum:                                                              96.000000
 MO| E(Fermi):           -0.061663 a.u.         -1.677938 eV
 MO| Band gap:            0.136447 a.u.          3.712916 eV

    24 Broy./Diag. 0.40E+00    0.2     0.00000294      -533.8405731851 -9.22E-05
  Decoupling Energy:                                              -0.0000081171

 MO| EIGENVALUES AND OCCUPATION NUMBERS AFTER SCF STEP 24
 MO|
 MO|  Index      Eigenvalue [a.u.]        Eigenvalue [eV]             Occupation
 MO|      1              -9.792099            -266.456563               2.000000
 MO|      2              -9.792068            -266.455722               2.000000
 MO|      3              -9.791920            -266.451701               2.000000
 MO|      4              -9.791894            -266.450981               2.000000
 MO|      5              -9.785993            -266.290398               2.000000
 MO|      6              -9.785989            -266.290312               2.000000
 MO|      7              -9.785908            -266.288100               2.000000
 MO|      8              -9.785891            -266.287644               2.000000
 MO|      9              -9.781877            -266.178419               2.000000
 MO|     10              -9.781874            -266.178319               2.000000
 MO|     11              -9.781533            -266.169047               2.000000
 MO|     12              -9.781529            -266.168943               2.000000
 MO|     13              -9.781093            -266.157084               2.000000
 MO|     14              -9.780979            -266.153982               2.000000
 MO|     15              -0.816305             -22.212788               2.000000
 MO|     16              -0.779058             -21.199252               2.000000
 MO|     17              -0.736559             -20.042784               2.000000
 MO|     18              -0.734925             -19.998330               2.000000
 MO|     19              -0.680134             -18.507399               2.000000
 MO|     20              -0.675164             -18.372155               2.000000
 MO|     21              -0.638903             -17.385428               2.000000
 MO|     22              -0.598501             -16.286040               2.000000
 MO|     23              -0.565585             -15.390354               2.000000
 MO|     24              -0.550544             -14.981077               2.000000
 MO|     25              -0.534922             -14.555980               2.000000
 MO|     26              -0.483796             -13.164747               2.000000
 MO|     27              -0.470546             -12.804219               2.000000
 MO|     28              -0.457874             -12.459383               2.000000
 MO|     29              -0.412269             -11.218417               2.000000
 MO|     30              -0.407773             -11.096064               2.000000
 MO|     31              -0.406996             -11.074927               2.000000
 MO|     32              -0.406564             -11.063157               2.000000
 MO|     33              -0.399017             -10.857797               2.000000
 MO|     34              -0.371535             -10.109974               2.000000
 MO|     35              -0.369134             -10.044637               2.000000
 MO|     36              -0.366491              -9.972726               2.000000
 MO|     37              -0.350506              -9.537754               2.000000
 MO|     38              -0.348537              -9.484162               2.000000
 MO|     39              -0.324668              -8.834677               2.000000
 MO|     40              -0.315157              -8.575855               2.000000
 MO|     41              -0.306458              -8.339141               2.000000
 MO|     42              -0.295360              -8.037164               2.000000
 MO|     43              -0.286953              -7.808391               2.000000
 MO|     44              -0.274629              -7.473045               2.000000
 MO|     45              -0.224088              -6.097745               2.000000
 MO|     46              -0.221434              -6.025524               2.000000
 MO|     47              -0.205283              -5.586037               2.000000
 MO|     48              -0.187574              -5.104158               2.000000
 MO|     49              -0.051126              -1.391209               0.000000
 MO|     50              -0.027711              -0.754060               0.000000
 MO|     51              -0.025608              -0.696823               0.000000
 MO|     52              -0.015056              -0.409696               0.000000
 MO|     53              -0.001865              -0.050747               0.000000
 MO|     54               0.000352               0.009589               0.000000
 MO|     55               0.008255               0.224620               0.000000
 MO|     56               0.018841               0.512680               0.000000
 MO|     57               0.029087               0.791500               0.000000
 MO|     58               0.041157               1.119948               0.000000
 MO|     59               0.043700               1.189130               0.000000
 MO|     60               0.045513               1.238473               0.000000
 MO|     61               0.045585               1.240423               0.000000
 MO|     62               0.052751               1.435415               0.000000
 MO|     63               0.070093               1.907320               0.000000
 MO|     64               0.072998               1.986382               0.000000
 MO|     65               0.073561               2.001697               0.000000
 MO|     66               0.088705               2.413781               0.000000
 MO|     67               0.091826               2.498710               0.000000
 MO|     68               0.098317               2.675353               0.000000
 MO|     69               0.101509               2.762191               0.000000
 MO|     70               0.111680               3.038976               0.000000
 MO|     71               0.115919               3.154313               0.000000
 MO|     72               0.116270               3.163876               0.000000
 MO|     73               0.121077               3.294680               0.000000
 MO|     74               0.140357               3.819307               0.000000
 MO|     75               0.140727               3.829369               0.000000
 MO|     76               0.142839               3.886856               0.000000
 MO|     77               0.143408               3.902319               0.000000
 MO|     78               0.151995               4.135983               0.000000
 MO|     79               0.159241               4.333160               0.000000
 MO|     80               0.174278               4.742351               0.000000
 MO|     81               0.180029               4.898837               0.000000
 MO|     82               0.185091               5.036574               0.000000
 MO|     83               0.190528               5.184538               0.000000
 MO|     84               0.190663               5.188214               0.000000
 MO|     85               0.199416               5.426376               0.000000
 MO|     86               0.211512               5.755528               0.000000
 MO|     87               0.217566               5.920259               0.000000
 MO|     88               0.220466               5.999197               0.000000
 MO|     89               0.221738               6.033785               0.000000
 MO|     90               0.230756               6.279186               0.000000
 MO|     91               0.236841               6.444780               0.000000
 MO|     92               0.244222               6.645625               0.000000
 MO|     93               0.244672               6.657860               0.000000
 MO|     94               0.246578               6.709741               0.000000
 MO|     95               0.259621               7.064649               0.000000
 MO|     96               0.264222               7.189853               0.000000
 MO|     97               0.273861               7.452131               0.000000
 MO|     98               0.279285               7.599744               0.000000
 MO|     99               0.281548               7.661322               0.000000
 MO|    100               0.299952               8.162120               0.000000
 MO|    101               0.302283               8.225545               0.000000
 MO|    102               0.303450               8.257303               0.000000
 MO|    103               0.306430               8.338384               0.000000
 MO|    104               0.317183               8.630977               0.000000
 MO|    105               0.328600               8.941654               0.000000
 MO|    106               0.329797               8.974235               0.000000
 MO|    107               0.339752               9.245119               0.000000
 MO|    108               0.345162               9.392335               0.000000
 MO|    109               0.349970               9.523158               0.000000
 MO|    110               0.354377               9.643079               0.000000
 MO|    111               0.368310              10.022238               0.000000
 MO|    112               0.377368              10.268700               0.000000
 MO|    113               0.390051              10.613817               0.000000
 MO|    114               0.417406              11.358197               0.000000
 MO|    115               0.434777              11.830890               0.000000
 MO|    116               0.449929              12.243187               0.000000
 MO|    117               0.450057              12.246665               0.000000
 MO|    118               0.476034              12.953540               0.000000
 MO|    119               0.488161              13.283524               0.000000
 MO|    120               0.505041              13.742857               0.000000
 MO|    121               0.523342              14.240859               0.000000
 MO|    122               0.555163              15.106745               0.000000
 MO|    123               0.561487              15.278847               0.000000
 MO|    124               0.588922              16.025380               0.000000
 MO|    125               0.597313              16.253714               0.000000
 MO|    126               0.603575              16.424123               0.000000
 MO|    127               0.606319              16.498788               0.000000
 MO|    128               0.616705              16.781407               0.000000
 MO|    129               0.621298              16.906367               0.000000
 MO|    130               0.629067              17.117780               0.000000
 MO|    131               0.648356              17.642677               0.000000
 MO|    132               0.662775              18.035024               0.000000
 MO|    133               0.723821              19.696167               0.000000
 MO|    134               0.724228              19.707239               0.000000
 MO|    135               0.733377              19.956190               0.000000
 MO|    136               0.735648              20.018006               0.000000
 MO|    137               0.745994              20.299519               0.000000
 MO|    138               0.747706              20.346128               0.000000
 MO|    139               0.762857              20.758382               0.000000
 MO|    140               0.772677              21.025601               0.000000
 MO|    141               0.783054              21.307982               0.000000
 MO|    142               0.789212              21.475547               0.000000
 MO|    143               0.793484              21.591792               0.000000
 MO|    144               0.797971              21.713895               0.000000
 MO|    145               0.801678              21.814774               0.000000
 MO|    146               0.812415              22.106935               0.000000
 MO|    147               0.814314              22.158603               0.000000
 MO|    148               0.825551              22.464390               0.000000
 MO| Sum:                                                              96.000000
 MO| E(Fermi):           -0.061662 a.u.         -1.677917 eV
 MO| Band gap:            0.136448 a.u.          3.712949 eV

    25 Broy./Diag. 0.40E+00    0.3     0.00000375      -533.8405837824 -1.06E-05
  Decoupling Energy:                                              -0.0000081100

 MO| EIGENVALUES AND OCCUPATION NUMBERS AFTER SCF STEP 25
 MO|
 MO|  Index      Eigenvalue [a.u.]        Eigenvalue [eV]             Occupation
 MO|      1              -9.792101            -266.456620               2.000000
 MO|      2              -9.792070            -266.455779               2.000000
 MO|      3              -9.791922            -266.451759               2.000000
 MO|      4              -9.791896            -266.451038               2.000000
 MO|      5              -9.785995            -266.290458               2.000000
 MO|      6              -9.785991            -266.290371               2.000000
 MO|      7              -9.785910            -266.288159               2.000000
 MO|      8              -9.785893            -266.287703               2.000000
 MO|      9              -9.781880            -266.178485               2.000000
 MO|     10              -9.781876            -266.178385               2.000000
 MO|     11              -9.781535            -266.169113               2.000000
 MO|     12              -9.781532            -266.169009               2.000000
 MO|     13              -9.781096            -266.157161               2.000000
 MO|     14              -9.780982            -266.154058               2.000000
 MO|     15              -0.816306             -22.212809               2.000000
 MO|     16              -0.779059             -21.199271               2.000000
 MO|     17              -0.736560             -20.042807               2.000000
 MO|     18              -0.734926             -19.998365               2.000000
 MO|     19              -0.680135             -18.507425               2.000000
 MO|     20              -0.675165             -18.372181               2.000000
 MO|     21              -0.638904             -17.385457               2.000000
 MO|     22              -0.598502             -16.286075               2.000000
 MO|     23              -0.565586             -15.390389               2.000000
 MO|     24              -0.550546             -14.981108               2.000000
 MO|     25              -0.534924             -14.556009               2.000000
 MO|     26              -0.483797             -13.164786               2.000000
 MO|     27              -0.470548             -12.804252               2.000000
 MO|     28              -0.457875             -12.459418               2.000000
 MO|     29              -0.412271             -11.218460               2.000000
 MO|     30              -0.407774             -11.096093               2.000000
 MO|     31              -0.406997             -11.074958               2.000000
 MO|     32              -0.406565             -11.063198               2.000000
 MO|     33              -0.399018             -10.857826               2.000000
 MO|     34              -0.371536             -10.110006               2.000000
 MO|     35              -0.369135             -10.044672               2.000000
 MO|     36              -0.366492              -9.972767               2.000000
 MO|     37              -0.350507              -9.537783               2.000000
 MO|     38              -0.348538              -9.484199               2.000000
 MO|     39              -0.324669              -8.834692               2.000000
 MO|     40              -0.315158              -8.575893               2.000000
 MO|     41              -0.306459              -8.339176               2.000000
 MO|     42              -0.295361              -8.037186               2.000000
 MO|     43              -0.286954              -7.808425               2.000000
 MO|     44              -0.274631              -7.473080               2.000000
 MO|     45              -0.224089              -6.097760               2.000000
 MO|     46              -0.221435              -6.025540               2.000000
 MO|     47              -0.205284              -5.586057               2.000000
 MO|     48              -0.187575              -5.104184               2.000000
 MO|     49              -0.051126              -1.391209               0.000000
 MO|     50              -0.027711              -0.754066               0.000000
 MO|     51              -0.025608              -0.696834               0.000000
 MO|     52              -0.015056              -0.409695               0.000000
 MO|     53              -0.001860              -0.050621               0.000000
 MO|     54               0.000358               0.009731               0.000000
 MO|     55               0.008261               0.224787               0.000000
 MO|     56               0.018847               0.512840               0.000000
 MO|     57               0.029095               0.791712               0.000000
 MO|     58               0.041161               1.120060               0.000000
 MO|     59               0.043701               1.189160               0.000000
 MO|     60               0.045519               1.238634               0.000000
 MO|     61               0.045595               1.240699               0.000000
 MO|     62               0.052754               1.435511               0.000000
 MO|     63               0.070101               1.907532               0.000000
 MO|     64               0.073004               1.986542               0.000000
 MO|     65               0.073566               2.001826               0.000000
 MO|     66               0.088706               2.413823               0.000000
 MO|     67               0.091832               2.498865               0.000000
 MO|     68               0.098323               2.675500               0.000000
 MO|     69               0.101511               2.762246               0.000000
 MO|     70               0.111686               3.039125               0.000000
 MO|     71               0.115924               3.154449               0.000000
 MO|     72               0.116273               3.163961               0.000000
 MO|     73               0.121083               3.294841               0.000000
 MO|     74               0.140362               3.819441               0.000000
 MO|     75               0.140734               3.829566               0.000000
 MO|     76               0.142845               3.887002               0.000000
 MO|     77               0.143411               3.902413               0.000000
 MO|     78               0.152001               4.136144               0.000000
 MO|     79               0.159246               4.333291               0.000000
 MO|     80               0.174279               4.742365               0.000000
 MO|     81               0.180032               4.898927               0.000000
 MO|     82               0.185098               5.036765               0.000000
 MO|     83               0.190532               5.184650               0.000000
 MO|     84               0.190668               5.188333               0.000000
 MO|     85               0.199424               5.426599               0.000000
 MO|     86               0.211518               5.755703               0.000000
 MO|     87               0.217575               5.920511               0.000000
 MO|     88               0.220472               5.999336               0.000000
 MO|     89               0.221739               6.033835               0.000000
 MO|     90               0.230759               6.279268               0.000000
 MO|     91               0.236842               6.444790               0.000000
 MO|     92               0.244223               6.645654               0.000000
 MO|     93               0.244675               6.657941               0.000000
 MO|     94               0.246587               6.709986               0.000000
 MO|     95               0.259629               7.064862               0.000000
 MO|     96               0.264230               7.190072               0.000000
 MO|     97               0.273862               7.452176               0.000000
 MO|     98               0.279287               7.599783               0.000000
 MO|     99               0.281551               7.661385               0.000000
 MO|    100               0.299953               8.162139               0.000000
 MO|    101               0.302289               8.225707               0.000000
 MO|    102               0.303453               8.257378               0.000000
 MO|    103               0.306436               8.338546               0.000000
 MO|    104               0.317187               8.631111               0.000000
 MO|    105               0.328604               8.941781               0.000000
 MO|    106               0.329798               8.974256               0.000000
 MO|    107               0.339751               9.245107               0.000000
 MO|    108               0.345165               9.392417               0.000000
 MO|    109               0.349974               9.523277               0.000000
 MO|    110               0.354380               9.643166               0.000000
 MO|    111               0.368315              10.022372               0.000000
 MO|    112               0.377376              10.268916               0.000000
 MO|    113               0.390059              10.614051               0.000000
 MO|    114               0.417406              11.358182               0.000000
 MO|    115               0.434779              11.830942               0.000000
 MO|    116               0.449933              12.243302               0.000000
 MO|    117               0.450059              12.246730               0.000000
 MO|    118               0.476034              12.953548               0.000000
 MO|    119               0.488161              13.283540               0.000000
 MO|    120               0.505044              13.742953               0.000000
 MO|    121               0.523346              14.240968               0.000000
 MO|    122               0.555165              15.106799               0.000000
 MO|    123               0.561486              15.278801               0.000000
 MO|    124               0.588923              16.025406               0.000000
 MO|    125               0.597308              16.253589               0.000000
 MO|    126               0.603575              16.424111               0.000000
 MO|    127               0.606320              16.498806               0.000000
 MO|    128               0.616709              16.781502               0.000000
 MO|    129               0.621300              16.906430               0.000000
 MO|    130               0.629061              17.117624               0.000000
 MO|    131               0.648355              17.642647               0.000000
 MO|    132               0.662775              18.035033               0.000000
 MO|    133               0.723822              19.696192               0.000000
 MO|    134               0.724227              19.707219               0.000000
 MO|    135               0.733376              19.956183               0.000000
 MO|    136               0.735648              20.017994               0.000000
 MO|    137               0.745994              20.299536               0.000000
 MO|    138               0.747705              20.346093               0.000000
 MO|    139               0.762858              20.758410               0.000000
 MO|    140               0.772674              21.025542               0.000000
 MO|    141               0.783058              21.308083               0.000000
 MO|    142               0.789211              21.475514               0.000000
 MO|    143               0.793485              21.591831               0.000000
 MO|    144               0.797972              21.713929               0.000000
 MO|    145               0.801677              21.814754               0.000000
 MO|    146               0.812416              22.106959               0.000000
 MO|    147               0.814314              22.158620               0.000000
 MO|    148               0.825550              22.464366               0.000000
 MO| Sum:                                                              96.000000
 MO| E(Fermi):           -0.061662 a.u.         -1.677917 eV
 MO| Band gap:            0.136449 a.u.          3.712975 eV

    26 Broy./Diag. 0.40E+00    0.3     0.00000381      -533.8404869100  9.69E-05
  Decoupling Energy:                                              -0.0000081015

 MO| EIGENVALUES AND OCCUPATION NUMBERS AFTER SCF STEP 26
 MO|
 MO|  Index      Eigenvalue [a.u.]        Eigenvalue [eV]             Occupation
 MO|      1              -9.792102            -266.456658               2.000000
 MO|      2              -9.792071            -266.455816               2.000000
 MO|      3              -9.791924            -266.451796               2.000000
 MO|      4              -9.791897            -266.451076               2.000000
 MO|      5              -9.785996            -266.290481               2.000000
 MO|      6              -9.785992            -266.290394               2.000000
 MO|      7              -9.785911            -266.288182               2.000000
 MO|      8              -9.785894            -266.287726               2.000000
 MO|      9              -9.781881            -266.178514               2.000000
 MO|     10              -9.781877            -266.178413               2.000000
 MO|     11              -9.781536            -266.169142               2.000000
 MO|     12              -9.781533            -266.169038               2.000000
 MO|     13              -9.781096            -266.157153               2.000000
 MO|     14              -9.780982            -266.154050               2.000000
 MO|     15              -0.816306             -22.212815               2.000000
 MO|     16              -0.779059             -21.199284               2.000000
 MO|     17              -0.736560             -20.042824               2.000000
 MO|     18              -0.734927             -19.998376               2.000000
 MO|     19              -0.680136             -18.507445               2.000000
 MO|     20              -0.675166             -18.372202               2.000000
 MO|     21              -0.638905             -17.385480               2.000000
 MO|     22              -0.598503             -16.286097               2.000000
 MO|     23              -0.565587             -15.390412               2.000000
 MO|     24              -0.550547             -14.981136               2.000000
 MO|     25              -0.534925             -14.556039               2.000000
 MO|     26              -0.483798             -13.164821               2.000000
 MO|     27              -0.470549             -12.804278               2.000000
 MO|     28              -0.457876             -12.459448               2.000000
 MO|     29              -0.412272             -11.218481               2.000000
 MO|     30              -0.407774             -11.096093               2.000000
 MO|     31              -0.406998             -11.074987               2.000000
 MO|     32              -0.406567             -11.063238               2.000000
 MO|     33              -0.399019             -10.857854               2.000000
 MO|     34              -0.371537             -10.110034               2.000000
 MO|     35              -0.369136             -10.044696               2.000000
 MO|     36              -0.366493              -9.972770               2.000000
 MO|     37              -0.350508              -9.537803               2.000000
 MO|     38              -0.348539              -9.484230               2.000000
 MO|     39              -0.324669              -8.834700               2.000000
 MO|     40              -0.315160              -8.575934               2.000000
 MO|     41              -0.306460              -8.339211               2.000000
 MO|     42              -0.295362              -8.037200               2.000000
 MO|     43              -0.286955              -7.808450               2.000000
 MO|     44              -0.274632              -7.473109               2.000000
 MO|     45              -0.224089              -6.097769               2.000000
 MO|     46              -0.221435              -6.025550               2.000000
 MO|     47              -0.205284              -5.586068               2.000000
 MO|     48              -0.187576              -5.104192               2.000000
 MO|     49              -0.051126              -1.391199               0.000000
 MO|     50              -0.027711              -0.754066               0.000000
 MO|     51              -0.025608              -0.696838               0.000000
 MO|     52              -0.015055              -0.409680               0.000000
 MO|     53              -0.001855              -0.050475               0.000000
 MO|     54               0.000365               0.009926               0.000000
 MO|     55               0.008268               0.224982               0.000000
 MO|     56               0.018853               0.513003               0.000000
 MO|     57               0.029106               0.792016               0.000000
 MO|     58               0.041166               1.120173               0.000000
 MO|     59               0.043704               1.189233               0.000000
 MO|     60               0.045527               1.238855               0.000000
 MO|     61               0.045608               1.241062               0.000000
 MO|     62               0.052756               1.435562               0.000000
 MO|     63               0.070112               1.907855               0.000000
 MO|     64               0.073008               1.986654               0.000000
 MO|     65               0.073572               2.001985               0.000000
 MO|     66               0.088711               2.413952               0.000000
 MO|     67               0.091836               2.498975               0.000000
 MO|     68               0.098328               2.675650               0.000000
 MO|     69               0.101514               2.762332               0.000000
 MO|     70               0.111691               3.039277               0.000000
 MO|     71               0.115930               3.154609               0.000000
 MO|     72               0.116277               3.164049               0.000000
 MO|     73               0.121092               3.295087               0.000000
 MO|     74               0.140369               3.819645               0.000000
 MO|     75               0.140740               3.829735               0.000000
 MO|     76               0.142848               3.887105               0.000000
 MO|     77               0.143416               3.902547               0.000000
 MO|     78               0.152007               4.136309               0.000000
 MO|     79               0.159253               4.333504               0.000000
 MO|     80               0.174283               4.742477               0.000000
 MO|     81               0.180040               4.899136               0.000000
 MO|     82               0.185105               5.036973               0.000000
 MO|     83               0.190539               5.184823               0.000000
 MO|     84               0.190674               5.188515               0.000000
 MO|     85               0.199432               5.426822               0.000000
 MO|     86               0.211528               5.755957               0.000000
 MO|     87               0.217585               5.920788               0.000000
 MO|     88               0.220481               5.999590               0.000000
 MO|     89               0.221746               6.034025               0.000000
 MO|     90               0.230766               6.279466               0.000000
 MO|     91               0.236843               6.444828               0.000000
 MO|     92               0.244226               6.645738               0.000000
 MO|     93               0.244683               6.658153               0.000000
 MO|     94               0.246596               6.710232               0.000000
 MO|     95               0.259642               7.065214               0.000000
 MO|     96               0.264239               7.190322               0.000000
 MO|     97               0.273871               7.452406               0.000000
 MO|     98               0.279290               7.599869               0.000000
 MO|     99               0.281556               7.661525               0.000000
 MO|    100               0.299958               8.162272               0.000000
 MO|    101               0.302300               8.226010               0.000000
 MO|    102               0.303460               8.257577               0.000000
 MO|    103               0.306442               8.338721               0.000000
 MO|    104               0.317194               8.631277               0.000000
 MO|    105               0.328612               8.941980               0.000000
 MO|    106               0.329802               8.974366               0.000000
 MO|    107               0.339753               9.245144               0.000000
 MO|    108               0.345171               9.392594               0.000000
 MO|    109               0.349980               9.523446               0.000000
 MO|    110               0.354385               9.643318               0.000000
 MO|    111               0.368323              10.022583               0.000000
 MO|    112               0.377391              10.269330               0.000000
 MO|    113               0.390070              10.614335               0.000000
 MO|    114               0.417407              11.358229               0.000000
 MO|    115               0.434782              11.831027               0.000000
 MO|    116               0.449952              12.243830               0.000000
 MO|    117               0.450065              12.246899               0.000000
 MO|    118               0.476036              12.953612               0.000000
 MO|    119               0.488166              13.283679               0.000000
 MO|    120               0.505052              13.743176               0.000000
 MO|    121               0.523355              14.241214               0.000000
 MO|    122               0.555171              15.106967               0.000000
 MO|    123               0.561486              15.278805               0.000000
 MO|    124               0.588926              16.025502               0.000000
 MO|    125               0.597306              16.253519               0.000000
 MO|    126               0.603577              16.424172               0.000000
 MO|    127               0.606320              16.498819               0.000000
 MO|    128               0.616715              16.781681               0.000000
 MO|    129               0.621304              16.906540               0.000000
 MO|    130               0.629058              17.117550               0.000000
 MO|    131               0.648355              17.642640               0.000000
 MO|    132               0.662778              18.035101               0.000000
 MO|    133               0.723823              19.696229               0.000000
 MO|    134               0.724227              19.707221               0.000000
 MO|    135               0.733378              19.956218               0.000000
 MO|    136               0.735649              20.018019               0.000000
 MO|    137               0.745995              20.299558               0.000000
 MO|    138               0.747705              20.346099               0.000000
 MO|    139               0.762859              20.758453               0.000000
 MO|    140               0.772674              21.025531               0.000000
 MO|    141               0.783069              21.308398               0.000000
 MO|    142               0.789214              21.475614               0.000000
 MO|    143               0.793491              21.591976               0.000000
 MO|    144               0.797977              21.714066               0.000000
 MO|    145               0.801678              21.814773               0.000000
 MO|    146               0.812418              22.107017               0.000000
 MO|    147               0.814315              22.158650               0.000000
 MO|    148               0.825551              22.464380               0.000000
 MO| Sum:                                                              96.000000
 MO| E(Fermi):           -0.061662 a.u.         -1.677907 eV
 MO| Band gap:            0.136450 a.u.          3.712993 eV

    27 Broy./Diag. 0.40E+00    0.3     0.00000385      -533.8404105061  7.64E-05
  Decoupling Energy:                                              -0.0000080965

 MO| EIGENVALUES AND OCCUPATION NUMBERS AFTER SCF STEP 27
 MO|
 MO|  Index      Eigenvalue [a.u.]        Eigenvalue [eV]             Occupation
 MO|      1              -9.792103            -266.456672               2.000000
 MO|      2              -9.792072            -266.455830               2.000000
 MO|      3              -9.791924            -266.451810               2.000000
 MO|      4              -9.791898            -266.451090               2.000000
 MO|      5              -9.785996            -266.290496               2.000000
 MO|      6              -9.785993            -266.290410               2.000000
 MO|      7              -9.785912            -266.288198               2.000000
 MO|      8              -9.785895            -266.287742               2.000000
 MO|      9              -9.781882            -266.178537               2.000000
 MO|     10              -9.781878            -266.178436               2.000000
 MO|     11              -9.781537            -266.169165               2.000000
 MO|     12              -9.781533            -266.169061               2.000000
 MO|     13              -9.781095            -266.157144               2.000000
 MO|     14              -9.780981            -266.154041               2.000000
 MO|     15              -0.816307             -22.212846               2.000000
 MO|     16              -0.779061             -21.199325               2.000000
 MO|     17              -0.736562             -20.042866               2.000000
 MO|     18              -0.734928             -19.998398               2.000000
 MO|     19              -0.680138             -18.507484               2.000000
 MO|     20              -0.675168             -18.372244               2.000000
 MO|     21              -0.638906             -17.385520               2.000000
 MO|     22              -0.598504             -16.286131               2.000000
 MO|     23              -0.565588             -15.390442               2.000000
 MO|     24              -0.550548             -14.981178               2.000000
 MO|     25              -0.534926             -14.556082               2.000000
 MO|     26              -0.483800             -13.164863               2.000000
 MO|     27              -0.470550             -12.804321               2.000000
 MO|     28              -0.457878             -12.459488               2.000000
 MO|     29              -0.412273             -11.218506               2.000000
 MO|     30              -0.407775             -11.096109               2.000000
 MO|     31              -0.407000             -11.075035               2.000000
 MO|     32              -0.406568             -11.063284               2.000000
 MO|     33              -0.399020             -10.857897               2.000000
 MO|     34              -0.371539             -10.110077               2.000000
 MO|     35              -0.369137             -10.044730               2.000000
 MO|     36              -0.366493              -9.972778               2.000000
 MO|     37              -0.350509              -9.537842               2.000000
 MO|     38              -0.348541              -9.484270               2.000000
 MO|     39              -0.324671              -8.834738               2.000000
 MO|     40              -0.315162              -8.575986               2.000000
 MO|     41              -0.306462              -8.339256               2.000000
 MO|     42              -0.295363              -8.037237               2.000000
 MO|     43              -0.286956              -7.808483               2.000000
 MO|     44              -0.274633              -7.473151               2.000000
 MO|     45              -0.224090              -6.097804               2.000000
 MO|     46              -0.221436              -6.025588               2.000000
 MO|     47              -0.205285              -5.586102               2.000000
 MO|     48              -0.187576              -5.104215               2.000000
 MO|     49              -0.051126              -1.391218               0.000000
 MO|     50              -0.027712              -0.754093               0.000000
 MO|     51              -0.025609              -0.696869               0.000000
 MO|     52              -0.015056              -0.409691               0.000000
 MO|     53              -0.001852              -0.050401               0.000000
 MO|     54               0.000369               0.010054               0.000000
 MO|     55               0.008273               0.225114               0.000000
 MO|     56               0.018855               0.513079               0.000000
 MO|     57               0.029115               0.792267               0.000000
 MO|     58               0.041167               1.120208               0.000000
 MO|     59               0.043704               1.189249               0.000000
 MO|     60               0.045533               1.239011               0.000000
 MO|     61               0.045619               1.241360               0.000000
 MO|     62               0.052754               1.435505               0.000000
 MO|     63               0.070122               1.908130               0.000000
 MO|     64               0.073009               1.986670               0.000000
 MO|     65               0.073575               2.002082               0.000000
 MO|     66               0.088714               2.414027               0.000000
 MO|     67               0.091836               2.498979               0.000000
 MO|     68               0.098331               2.675728               0.000000
 MO|     69               0.101515               2.762375               0.000000
 MO|     70               0.111694               3.039354               0.000000
 MO|     71               0.115933               3.154711               0.000000
 MO|     72               0.116278               3.164087               0.000000
 MO|     73               0.121099               3.295277               0.000000
 MO|     74               0.140375               3.819807               0.000000
 MO|     75               0.140743               3.829799               0.000000
 MO|     76               0.142847               3.887071               0.000000
 MO|     77               0.143419               3.902639               0.000000
 MO|     78               0.152009               4.136372               0.000000
 MO|     79               0.159260               4.333673               0.000000
 MO|     80               0.174286               4.742574               0.000000
 MO|     81               0.180047               4.899322               0.000000
 MO|     82               0.185110               5.037093               0.000000
 MO|     83               0.190543               5.184929               0.000000
 MO|     84               0.190678               5.188611               0.000000
 MO|     85               0.199437               5.426951               0.000000
 MO|     86               0.211535               5.756163               0.000000
 MO|     87               0.217590               5.920938               0.000000
 MO|     88               0.220486               5.999722               0.000000
 MO|     89               0.221752               6.034168               0.000000
 MO|     90               0.230773               6.279656               0.000000
 MO|     91               0.236844               6.444841               0.000000
 MO|     92               0.244229               6.645797               0.000000
 MO|     93               0.244690               6.658361               0.000000
 MO|     94               0.246601               6.710350               0.000000
 MO|     95               0.259652               7.065500               0.000000
 MO|     96               0.264244               7.190446               0.000000
 MO|     97               0.273879               7.452631               0.000000
 MO|     98               0.279292               7.599925               0.000000
 MO|     99               0.281560               7.661631               0.000000
 MO|    100               0.299962               8.162386               0.000000
 MO|    101               0.302311               8.226293               0.000000
 MO|    102               0.303466               8.257741               0.000000
 MO|    103               0.306446               8.338807               0.000000
 MO|    104               0.317196               8.631352               0.000000
 MO|    105               0.328617               8.942132               0.000000
 MO|    106               0.329805               8.974456               0.000000
 MO|    107               0.339753               9.245153               0.000000
 MO|    108               0.345178               9.392760               0.000000
 MO|    109               0.349985               9.523569               0.000000
 MO|    110               0.354390               9.643441               0.000000
 MO|    111               0.368329              10.022755               0.000000
 MO|    112               0.377406              10.269740               0.000000
 MO|    113               0.390077              10.614530               0.000000
 MO|    114               0.417408              11.358255               0.000000
 MO|    115               0.434784              11.831078               0.000000
 MO|    116               0.449975              12.244433               0.000000
 MO|    117               0.450071              12.247048               0.000000
 MO|    118               0.476038              12.953647               0.000000
 MO|    119               0.488171              13.283809               0.000000
 MO|    120               0.505060              13.743377               0.000000
 MO|    121               0.523363              14.241420               0.000000
 MO|    122               0.555176              15.107114               0.000000
 MO|    123               0.561486              15.278804               0.000000
 MO|    124               0.588929              16.025579               0.000000
 MO|    125               0.597302              16.253412               0.000000
 MO|    126               0.603579              16.424227               0.000000
 MO|    127               0.606319              16.498784               0.000000
 MO|    128               0.616721              16.781827               0.000000
 MO|    129               0.621307              16.906625               0.000000
 MO|    130               0.629055              17.117449               0.000000
 MO|    131               0.648354              17.642613               0.000000
 MO|    132               0.662780              18.035149               0.000000
 MO|    133               0.723823              19.696230               0.000000
 MO|    134               0.724225              19.707178               0.000000
 MO|    135               0.733378              19.956221               0.000000
 MO|    136               0.735649              20.018033               0.000000
 MO|    137               0.745994              20.299538               0.000000
 MO|    138               0.747705              20.346089               0.000000
 MO|    139               0.762859              20.758460               0.000000
 MO|    140               0.772673              21.025493               0.000000
 MO|    141               0.783081              21.308714               0.000000
 MO|    142               0.789218              21.475721               0.000000
 MO|    143               0.793496              21.592115               0.000000
 MO|    144               0.797982              21.714190               0.000000
 MO|    145               0.801678              21.814773               0.000000
 MO|    146               0.812419              22.107044               0.000000
 MO|    147               0.814315              22.158645               0.000000
 MO|    148               0.825551              22.464373               0.000000
 MO| Sum:                                                              96.000000
 MO| E(Fermi):           -0.061663 a.u.         -1.677926 eV
 MO| Band gap:            0.136450 a.u.          3.712998 eV

    28 Broy./Diag. 0.40E+00    0.2     0.00000344      -533.8404229195 -1.24E-05
  Decoupling Energy:                                              -0.0000080949

 MO| EIGENVALUES AND OCCUPATION NUMBERS AFTER SCF STEP 28
 MO|
 MO|  Index      Eigenvalue [a.u.]        Eigenvalue [eV]             Occupation
 MO|      1              -9.792103            -266.456682               2.000000
 MO|      2              -9.792072            -266.455841               2.000000
 MO|      3              -9.791925            -266.451820               2.000000
 MO|      4              -9.791898            -266.451100               2.000000
 MO|      5              -9.785997            -266.290521               2.000000
 MO|      6              -9.785994            -266.290434               2.000000
 MO|      7              -9.785913            -266.288222               2.000000
 MO|      8              -9.785896            -266.287766               2.000000
 MO|      9              -9.781883            -266.178568               2.000000
 MO|     10              -9.781879            -266.178468               2.000000
 MO|     11              -9.781538            -266.169196               2.000000
 MO|     12              -9.781535            -266.169092               2.000000
 MO|     13              -9.781097            -266.157172               2.000000
 MO|     14              -9.780982            -266.154069               2.000000
 MO|     15              -0.816308             -22.212873               2.000000
 MO|     16              -0.779062             -21.199354               2.000000
 MO|     17              -0.736563             -20.042895               2.000000
 MO|     18              -0.734928             -19.998420               2.000000
 MO|     19              -0.680138             -18.507508               2.000000
 MO|     20              -0.675169             -18.372271               2.000000
 MO|     21              -0.638907             -17.385544               2.000000
 MO|     22              -0.598505             -16.286156               2.000000
 MO|     23              -0.565589             -15.390462               2.000000
 MO|     24              -0.550549             -14.981203               2.000000
 MO|     25              -0.534927             -14.556104               2.000000
 MO|     26              -0.483801             -13.164886               2.000000
 MO|     27              -0.470551             -12.804347               2.000000
 MO|     28              -0.457879             -12.459510               2.000000
 MO|     29              -0.412273             -11.218524               2.000000
 MO|     30              -0.407775             -11.096131               2.000000
 MO|     31              -0.407001             -11.075063               2.000000
 MO|     32              -0.406569             -11.063304               2.000000
 MO|     33              -0.399021             -10.857922               2.000000
 MO|     34              -0.371539             -10.110101               2.000000
 MO|     35              -0.369138             -10.044750               2.000000
 MO|     36              -0.366494              -9.972796               2.000000
 MO|     37              -0.350510              -9.537868               2.000000
 MO|     38              -0.348541              -9.484294               2.000000
 MO|     39              -0.324672              -8.834766               2.000000
 MO|     40              -0.315163              -8.576013               2.000000
 MO|     41              -0.306463              -8.339277               2.000000
 MO|     42              -0.295364              -8.037265               2.000000
 MO|     43              -0.286957              -7.808503               2.000000
 MO|     44              -0.274634              -7.473177               2.000000
 MO|     45              -0.224091              -6.097831               2.000000
 MO|     46              -0.221437              -6.025616               2.000000
 MO|     47              -0.205286              -5.586128               2.000000
 MO|     48              -0.187577              -5.104239               2.000000
 MO|     49              -0.051127              -1.391248               0.000000
 MO|     50              -0.027713              -0.754120               0.000000
 MO|     51              -0.025610              -0.696896               0.000000
 MO|     52              -0.015057              -0.409721               0.000000
 MO|     53              -0.001854              -0.050448               0.000000
 MO|     54               0.000368               0.010005               0.000000
 MO|     55               0.008274               0.225148               0.000000
 MO|     56               0.018855               0.513058               0.000000
 MO|     57               0.029118               0.792348               0.000000
 MO|     58               0.041163               1.120114               0.000000
 MO|     59               0.043703               1.189209               0.000000
 MO|     60               0.045533               1.239029               0.000000
 MO|     61               0.045623               1.241460               0.000000
 MO|     62               0.052749               1.435377               0.000000
 MO|     63               0.070126               1.908214               0.000000
 MO|     64               0.073007               1.986622               0.000000
 MO|     65               0.073576               2.002091               0.000000
 MO|     66               0.088712               2.413985               0.000000
 MO|     67               0.091833               2.498893               0.000000
 MO|     68               0.098330               2.675689               0.000000
 MO|     69               0.101516               2.762378               0.000000
 MO|     70               0.111693               3.039316               0.000000
 MO|     71               0.115934               3.154734               0.000000
 MO|     72               0.116278               3.164074               0.000000
 MO|     73               0.121101               3.295316               0.000000
 MO|     74               0.140377               3.819856               0.000000
 MO|     75               0.140740               3.829725               0.000000
 MO|     76               0.142840               3.886872               0.000000
 MO|     77               0.143420               3.902662               0.000000
 MO|     78               0.152005               4.136257               0.000000
 MO|     79               0.159261               4.333717               0.000000
 MO|     80               0.174287               4.742591               0.000000
 MO|     81               0.180049               4.899375               0.000000
 MO|     82               0.185108               5.037038               0.000000
 MO|     83               0.190539               5.184827               0.000000
 MO|     84               0.190674               5.188511               0.000000
 MO|     85               0.199436               5.426926               0.000000
 MO|     86               0.211537               5.756216               0.000000
 MO|     87               0.217585               5.920802               0.000000
 MO|     88               0.220478               5.999520               0.000000
 MO|     89               0.221750               6.034115               0.000000
 MO|     90               0.230776               6.279724               0.000000
 MO|     91               0.236843               6.444832               0.000000
 MO|     92               0.244228               6.645790               0.000000
 MO|     93               0.244693               6.658439               0.000000
 MO|     94               0.246595               6.710196               0.000000
 MO|     95               0.259651               7.065462               0.000000
 MO|     96               0.264237               7.190250               0.000000
 MO|     97               0.273881               7.452680               0.000000
 MO|     98               0.279292               7.599923               0.000000
 MO|     99               0.281559               7.661623               0.000000
 MO|    100               0.299963               8.162399               0.000000
 MO|    101               0.302314               8.226393               0.000000
 MO|    102               0.303466               8.257720               0.000000
 MO|    103               0.306444               8.338755               0.000000
 MO|    104               0.317191               8.631212               0.000000
 MO|    105               0.328617               8.942133               0.000000
 MO|    106               0.329805               8.974454               0.000000
 MO|    107               0.339752               9.245109               0.000000
 MO|    108               0.345180               9.392815               0.000000
 MO|    109               0.349985               9.523589               0.000000
 MO|    110               0.354391               9.643470               0.000000
 MO|    111               0.368331              10.022804               0.000000
 MO|    112               0.377412              10.269902               0.000000
 MO|    113               0.390075              10.614492               0.000000
 MO|    114               0.417407              11.358234               0.000000
 MO|    115               0.434784              11.831070               0.000000
 MO|    116               0.449984              12.244683               0.000000
 MO|    117               0.450072              12.247079               0.000000
 MO|    118               0.476036              12.953604               0.000000
 MO|    119               0.488171              13.283821               0.000000
 MO|    120               0.505062              13.743424               0.000000
 MO|    121               0.523364              14.241450               0.000000
 MO|    122               0.555178              15.107151               0.000000
 MO|    123               0.561485              15.278786               0.000000
 MO|    124               0.588930              16.025591               0.000000
 MO|    125               0.597298              16.253318               0.000000
 MO|    126               0.603580              16.424235               0.000000
 MO|    127               0.606317              16.498734               0.000000
 MO|    128               0.616722              16.781864               0.000000
 MO|    129               0.621307              16.906633               0.000000
 MO|    130               0.629051              17.117352               0.000000
 MO|    131               0.648353              17.642583               0.000000
 MO|    132               0.662779              18.035147               0.000000
 MO|    133               0.723822              19.696196               0.000000
 MO|    134               0.724223              19.707109               0.000000
 MO|    135               0.733376              19.956175               0.000000
 MO|    136               0.735649              20.018026               0.000000
 MO|    137               0.745993              20.299494               0.000000
 MO|    138               0.747704              20.346072               0.000000
 MO|    139               0.762858              20.758424               0.000000
 MO|    140               0.772670              21.025432               0.000000
 MO|    141               0.783084              21.308801               0.000000
 MO|    142               0.789219              21.475743               0.000000
 MO|    143               0.793497              21.592150               0.000000
 MO|    144               0.797983              21.714214               0.000000
 MO|    145               0.801677              21.814748               0.000000
 MO|    146               0.812418              22.107020               0.000000
 MO|    147               0.814314              22.158608               0.000000
 MO|    148               0.825549              22.464336               0.000000
 MO| Sum:                                                              96.000000
 MO| E(Fermi):           -0.061664 a.u.         -1.677956 eV
 MO| Band gap:            0.136450 a.u.          3.712991 eV

    29 Broy./Diag. 0.40E+00    0.2     0.00000369      -533.8404350191 -1.21E-05
  Decoupling Energy:                                              -0.0000080932

 MO| EIGENVALUES AND OCCUPATION NUMBERS AFTER SCF STEP 29
 MO|
 MO|  Index      Eigenvalue [a.u.]        Eigenvalue [eV]             Occupation
 MO|      1              -9.792103            -266.456672               2.000000
 MO|      2              -9.792072            -266.455830               2.000000
 MO|      3              -9.791924            -266.451810               2.000000
 MO|      4              -9.791898            -266.451090               2.000000
 MO|      5              -9.785997            -266.290511               2.000000
 MO|      6              -9.785993            -266.290424               2.000000
 MO|      7              -9.785912            -266.288212               2.000000
 MO|      8              -9.785895            -266.287756               2.000000
 MO|      9              -9.781883            -266.178563               2.000000
 MO|     10              -9.781879            -266.178463               2.000000
 MO|     11              -9.781538            -266.169191               2.000000
 MO|     12              -9.781534            -266.169087               2.000000
 MO|     13              -9.781096            -266.157157               2.000000
 MO|     14              -9.780982            -266.154054               2.000000
 MO|     15              -0.816307             -22.212852               2.000000
 MO|     16              -0.779061             -21.199335               2.000000
 MO|     17              -0.736562             -20.042875               2.000000
 MO|     18              -0.734928             -19.998401               2.000000
 MO|     19              -0.680138             -18.507488               2.000000
 MO|     20              -0.675168             -18.372253               2.000000
 MO|     21              -0.638906             -17.385524               2.000000
 MO|     22              -0.598505             -16.286138               2.000000
 MO|     23              -0.565588             -15.390441               2.000000
 MO|     24              -0.550548             -14.981183               2.000000
 MO|     25              -0.534926             -14.556082               2.000000
 MO|     26              -0.483800             -13.164868               2.000000
 MO|     27              -0.470550             -12.804327               2.000000
 MO|     28              -0.457878             -12.459489               2.000000
 MO|     29              -0.412272             -11.218503               2.000000
 MO|     30              -0.407775             -11.096113               2.000000
 MO|     31              -0.407000             -11.075044               2.000000
 MO|     32              -0.406568             -11.063282               2.000000
 MO|     33              -0.399021             -10.857902               2.000000
 MO|     34              -0.371539             -10.110080               2.000000
 MO|     35              -0.369137             -10.044728               2.000000
 MO|     36              -0.366493              -9.972779               2.000000
 MO|     37              -0.350510              -9.537849               2.000000
 MO|     38              -0.348541              -9.484275               2.000000
 MO|     39              -0.324671              -8.834748               2.000000
 MO|     40              -0.315162              -8.575995               2.000000
 MO|     41              -0.306462              -8.339256               2.000000
 MO|     42              -0.295363              -8.037247               2.000000
 MO|     43              -0.286956              -7.808482               2.000000
 MO|     44              -0.274634              -7.473158               2.000000
 MO|     45              -0.224090              -6.097812               2.000000
 MO|     46              -0.221437              -6.025599               2.000000
 MO|     47              -0.205286              -5.586109               2.000000
 MO|     48              -0.187577              -5.104222               2.000000
 MO|     49              -0.051127              -1.391243               0.000000
 MO|     50              -0.027713              -0.754108               0.000000
 MO|     51              -0.025610              -0.696881               0.000000
 MO|     52              -0.015057              -0.409720               0.000000
 MO|     53              -0.001856              -0.050510               0.000000
 MO|     54               0.000364               0.009910               0.000000
 MO|     55               0.008274               0.225137               0.000000
 MO|     56               0.018854               0.513036               0.000000
 MO|     57               0.029117               0.792316               0.000000
 MO|     58               0.041160               1.120019               0.000000
 MO|     59               0.043703               1.189207               0.000000
 MO|     60               0.045533               1.239008               0.000000
 MO|     61               0.045621               1.241420               0.000000
 MO|     62               0.052747               1.435314               0.000000
 MO|     63               0.070125               1.908185               0.000000
 MO|     64               0.073006               1.986582               0.000000
 MO|     65               0.073575               2.002083               0.000000
 MO|     66               0.088711               2.413952               0.000000
 MO|     67               0.091830               2.498826               0.000000
 MO|     68               0.098327               2.675622               0.000000
 MO|     69               0.101516               2.762392               0.000000
 MO|     70               0.111690               3.039251               0.000000
 MO|     71               0.115934               3.154727               0.000000
 MO|     72               0.116277               3.164059               0.000000
 MO|     73               0.121100               3.295301               0.000000
 MO|     74               0.140377               3.819858               0.000000
 MO|     75               0.140736               3.829632               0.000000
 MO|     76               0.142834               3.886721               0.000000
 MO|     77               0.143420               3.902665               0.000000
 MO|     78               0.152000               4.136124               0.000000
 MO|     79               0.159261               4.333704               0.000000
 MO|     80               0.174287               4.742600               0.000000
 MO|     81               0.180048               4.899361               0.000000
 MO|     82               0.185104               5.036932               0.000000
 MO|     83               0.190533               5.184679               0.000000
 MO|     84               0.190670               5.188399               0.000000
 MO|     85               0.199433               5.426843               0.000000
 MO|     86               0.211537               5.756210               0.000000
 MO|     87               0.217578               5.920600               0.000000
 MO|     88               0.220469               5.999276               0.000000
 MO|     89               0.221747               6.034041               0.000000
 MO|     90               0.230775               6.279716               0.000000
 MO|     91               0.236844               6.444847               0.000000
 MO|     92               0.244228               6.645793               0.000000
 MO|     93               0.244693               6.658437               0.000000
 MO|     94               0.246588               6.709991               0.000000
 MO|     95               0.259645               7.065290               0.000000
 MO|     96               0.264228               7.189996               0.000000
 MO|     97               0.273880               7.452663               0.000000
 MO|     98               0.279292               7.599925               0.000000
 MO|     99               0.281558               7.661591               0.000000
 MO|    100               0.299964               8.162422               0.000000
 MO|    101               0.302314               8.226386               0.000000
 MO|    102               0.303463               8.257644               0.000000
 MO|    103               0.306441               8.338679               0.000000
 MO|    104               0.317185               8.631051               0.000000
 MO|    105               0.328615               8.942069               0.000000
 MO|    106               0.329805               8.974457               0.000000
 MO|    107               0.339751               9.245089               0.000000
 MO|    108               0.345179               9.392807               0.000000
 MO|    109               0.349986               9.523592               0.000000
 MO|    110               0.354391               9.643460               0.000000
 MO|    111               0.368331              10.022796               0.000000
 MO|    112               0.377411              10.269866               0.000000
 MO|    113               0.390071              10.614366               0.000000
 MO|    114               0.417407              11.358233               0.000000
 MO|    115               0.434784              11.831064               0.000000
 MO|    116               0.449983              12.244666               0.000000
 MO|    117               0.450072              12.247092               0.000000
 MO|    118               0.476035              12.953569               0.000000
 MO|    119               0.488171              13.283808               0.000000
 MO|    120               0.505061              13.743419               0.000000
 MO|    121               0.523363              14.241434               0.000000
 MO|    122               0.555178              15.107152               0.000000
 MO|    123               0.561486              15.278799               0.000000
 MO|    124               0.588930              16.025589               0.000000
 MO|    125               0.597299              16.253336               0.000000
 MO|    126               0.603580              16.424249               0.000000
 MO|    127               0.606317              16.498730               0.000000
 MO|    128               0.616722              16.781856               0.000000
 MO|    129               0.621307              16.906626               0.000000
 MO|    130               0.629052              17.117369               0.000000
 MO|    131               0.648354              17.642598               0.000000
 MO|    132               0.662780              18.035148               0.000000
 MO|    133               0.723822              19.696185               0.000000
 MO|    134               0.724223              19.707104               0.000000
 MO|    135               0.733375              19.956159               0.000000
 MO|    136               0.735649              20.018041               0.000000
 MO|    137               0.745992              20.299485               0.000000
 MO|    138               0.747705              20.346090               0.000000
 MO|    139               0.762858              20.758409               0.000000
 MO|    140               0.772670              21.025433               0.000000
 MO|    141               0.783083              21.308786               0.000000
 MO|    142               0.789219              21.475747               0.000000
 MO|    143               0.793497              21.592144               0.000000
 MO|    144               0.797982              21.714206               0.000000
 MO|    145               0.801678              21.814756               0.000000
 MO|    146               0.812418              22.107007               0.000000
 MO|    147               0.814314              22.158598               0.000000
 MO|    148               0.825549              22.464329               0.000000
 MO| Sum:                                                              96.000000
 MO| E(Fermi):           -0.061664 a.u.         -1.677952 eV
 MO| Band gap:            0.136449 a.u.          3.712979 eV

    30 Broy./Diag. 0.40E+00    0.3     0.00000208      -533.8404236728  1.13E-05
  Decoupling Energy:                                              -0.0000080896

 MO| EIGENVALUES AND OCCUPATION NUMBERS AFTER SCF STEP 30
 MO|
 MO|  Index      Eigenvalue [a.u.]        Eigenvalue [eV]             Occupation
 MO|      1              -9.792101            -266.456615               2.000000
 MO|      2              -9.792070            -266.455774               2.000000
 MO|      3              -9.791922            -266.451753               2.000000
 MO|      4              -9.791896            -266.451033               2.000000
 MO|      5              -9.785994            -266.290450               2.000000
 MO|      6              -9.785991            -266.290363               2.000000
 MO|      7              -9.785910            -266.288151               2.000000
 MO|      8              -9.785893            -266.287695               2.000000
 MO|      9              -9.781881            -266.178507               2.000000
 MO|     10              -9.781877            -266.178407               2.000000
 MO|     11              -9.781536            -266.169135               2.000000
 MO|     12              -9.781532            -266.169031               2.000000
 MO|     13              -9.781093            -266.157082               2.000000
 MO|     14              -9.780979            -266.153979               2.000000
 MO|     15              -0.816305             -22.212790               2.000000
 MO|     16              -0.779059             -21.199277               2.000000
 MO|     17              -0.736560             -20.042818               2.000000
 MO|     18              -0.734925             -19.998335               2.000000
 MO|     19              -0.680135             -18.507428               2.000000
 MO|     20              -0.675166             -18.372196               2.000000
 MO|     21              -0.638904             -17.385464               2.000000
 MO|     22              -0.598502             -16.286079               2.000000
 MO|     23              -0.565586             -15.390377               2.000000
 MO|     24              -0.550546             -14.981125               2.000000
 MO|     25              -0.534924             -14.556023               2.000000
 MO|     26              -0.483798             -13.164811               2.000000
 MO|     27              -0.470548             -12.804269               2.000000
 MO|     28              -0.457876             -12.459428               2.000000
 MO|     29              -0.412270             -11.218436               2.000000
 MO|     30              -0.407772             -11.096049               2.000000
 MO|     31              -0.406998             -11.074989               2.000000
 MO|     32              -0.406566             -11.063223               2.000000
 MO|     33              -0.399018             -10.857845               2.000000
 MO|     34              -0.371536             -10.110021               2.000000
 MO|     35              -0.369135             -10.044664               2.000000
 MO|     36              -0.366490              -9.972711               2.000000
 MO|     37              -0.350507              -9.537790               2.000000
 MO|     38              -0.348539              -9.484217               2.000000
 MO|     39              -0.324669              -8.834692               2.000000
 MO|     40              -0.315160              -8.575943               2.000000
 MO|     41              -0.306460              -8.339197               2.000000
 MO|     42              -0.295361              -8.037192               2.000000
 MO|     43              -0.286954              -7.808419               2.000000
 MO|     44              -0.274631              -7.473101               2.000000
 MO|     45              -0.224088              -6.097755               2.000000
 MO|     46              -0.221435              -6.025544               2.000000
 MO|     47              -0.205284              -5.586052               2.000000
 MO|     48              -0.187575              -5.104162               2.000000
 MO|     49              -0.051126              -1.391200               0.000000
 MO|     50              -0.027711              -0.754060               0.000000
 MO|     51              -0.025608              -0.696831               0.000000
 MO|     52              -0.015055              -0.409679               0.000000
 MO|     53              -0.001857              -0.050541               0.000000
 MO|     54               0.000362               0.009847               0.000000
 MO|     55               0.008273               0.225115               0.000000
 MO|     56               0.018854               0.513040               0.000000
 MO|     57               0.029115               0.792252               0.000000
 MO|     58               0.041158               1.119971               0.000000
 MO|     59               0.043705               1.189263               0.000000
 MO|     60               0.045533               1.239003               0.000000
 MO|     61               0.045618               1.241342               0.000000
 MO|     62               0.052747               1.435323               0.000000
 MO|     63               0.070123               1.908143               0.000000
 MO|     64               0.073005               1.986557               0.000000
 MO|     65               0.073575               2.002089               0.000000
 MO|     66               0.088712               2.413984               0.000000
 MO|     67               0.091829               2.498796               0.000000
 MO|     68               0.098325               2.675570               0.000000
 MO|     69               0.101517               2.762430               0.000000
 MO|     70               0.111689               3.039205               0.000000
 MO|     71               0.115934               3.154714               0.000000
 MO|     72               0.116277               3.164062               0.000000
 MO|     73               0.121100               3.295310               0.000000
 MO|     74               0.140378               3.819876               0.000000
 MO|     75               0.140734               3.829565               0.000000
 MO|     76               0.142832               3.886660               0.000000
 MO|     77               0.143421               3.902687               0.000000
 MO|     78               0.151997               4.136038               0.000000
 MO|     79               0.159260               4.333689               0.000000
 MO|     80               0.174289               4.742647               0.000000
 MO|     81               0.180048               4.899350               0.000000
 MO|     82               0.185101               5.036846               0.000000
 MO|     83               0.190530               5.184579               0.000000
 MO|     84               0.190669               5.188356               0.000000
 MO|     85               0.199430               5.426769               0.000000
 MO|     86               0.211538               5.756231               0.000000
 MO|     87               0.217573               5.920449               0.000000
 MO|     88               0.220464               5.999129               0.000000
 MO|     89               0.221747               6.034049               0.000000
 MO|     90               0.230775               6.279710               0.000000
 MO|     91               0.236846               6.444897               0.000000
 MO|     92               0.244230               6.645841               0.000000
 MO|     93               0.244693               6.658447               0.000000
 MO|     94               0.246582               6.709839               0.000000
 MO|     95               0.259640               7.065153               0.000000
 MO|     96               0.264221               7.189809               0.000000
 MO|     97               0.273881               7.452684               0.000000
 MO|     98               0.279293               7.599954               0.000000
 MO|     99               0.281558               7.661589               0.000000
 MO|    100               0.299967               8.162516               0.000000
 MO|    101               0.302314               8.226396               0.000000
 MO|    102               0.303461               8.257603               0.000000
 MO|    103               0.306439               8.338630               0.000000
 MO|    104               0.317182               8.630954               0.000000
 MO|    105               0.328613               8.942012               0.000000
 MO|    106               0.329807               8.974514               0.000000
 MO|    107               0.339752               9.245122               0.000000
 MO|    108               0.345179               9.392807               0.000000
 MO|    109               0.349987               9.523638               0.000000
 MO|    110               0.354391               9.643470               0.000000
 MO|    111               0.368331              10.022794               0.000000
 MO|    112               0.377408              10.269788               0.000000
 MO|    113               0.390067              10.614256               0.000000
 MO|    114               0.417409              11.358272               0.000000
 MO|    115               0.434785              11.831091               0.000000
 MO|    116               0.449982              12.244630               0.000000
 MO|    117               0.450075              12.247170               0.000000
 MO|    118               0.476035              12.953579               0.000000
 MO|    119               0.488172              13.283846               0.000000
 MO|    120               0.505063              13.743461               0.000000
 MO|    121               0.523364              14.241452               0.000000
 MO|    122               0.555179              15.107191               0.000000
 MO|    123               0.561488              15.278864               0.000000
 MO|    124               0.588931              16.025615               0.000000
 MO|    125               0.597304              16.253461               0.000000
 MO|    126               0.603582              16.424306               0.000000
 MO|    127               0.606319              16.498773               0.000000
 MO|    128               0.616722              16.781860               0.000000
 MO|    129               0.621308              16.906656               0.000000
 MO|    130               0.629057              17.117501               0.000000
 MO|    131               0.648356              17.642663               0.000000
 MO|    132               0.662781              18.035181               0.000000
 MO|    133               0.723823              19.696212               0.000000
 MO|    134               0.724225              19.707175               0.000000
 MO|    135               0.733377              19.956195               0.000000
 MO|    136               0.735652              20.018096               0.000000
 MO|    137               0.745994              20.299519               0.000000
 MO|    138               0.747707              20.346147               0.000000
 MO|    139               0.762858              20.758430               0.000000
 MO|    140               0.772673              21.025511               0.000000
 MO|    141               0.783085              21.308832               0.000000
 MO|    142               0.789221              21.475797               0.000000
 MO|    143               0.793498              21.592170               0.000000
 MO|    144               0.797984              21.714238               0.000000
 MO|    145               0.801680              21.814809               0.000000
 MO|    146               0.812418              22.107029               0.000000
 MO|    147               0.814315              22.158625               0.000000
 MO|    148               0.825551              22.464373               0.000000
 MO| Sum:                                                              96.000000
 MO| E(Fermi):           -0.061662 a.u.         -1.677908 eV
 MO| Band gap:            0.136449 a.u.          3.712962 eV

    31 Broy./Diag. 0.40E+00    0.2     0.00000346      -533.8404295158 -5.84E-06
  Decoupling Energy:                                              -0.0000080870

 MO| EIGENVALUES AND OCCUPATION NUMBERS AFTER SCF STEP 31
 MO|
 MO|  Index      Eigenvalue [a.u.]        Eigenvalue [eV]             Occupation
 MO|      1              -9.792098            -266.456547               2.000000
 MO|      2              -9.792067            -266.455706               2.000000
 MO|      3              -9.791920            -266.451685               2.000000
 MO|      4              -9.791893            -266.450965               2.000000
 MO|      5              -9.785992            -266.290383               2.000000
 MO|      6              -9.785989            -266.290297               2.000000
 MO|      7              -9.785907            -266.288085               2.000000
 MO|      8              -9.785891            -266.287629               2.000000
 MO|      9              -9.781878            -266.178446               2.000000
 MO|     10              -9.781875            -266.178345               2.000000
 MO|     11              -9.781534            -266.169074               2.000000
 MO|     12              -9.781530            -266.168970               2.000000
 MO|     13              -9.781091            -266.157013               2.000000
 MO|     14              -9.780977            -266.153911               2.000000
 MO|     15              -0.816303             -22.212732               2.000000
 MO|     16              -0.779057             -21.199223               2.000000
 MO|     17              -0.736558             -20.042764               2.000000
 MO|     18              -0.734923             -19.998271               2.000000
 MO|     19              -0.680133             -18.507371               2.000000
 MO|     20              -0.675164             -18.372142               2.000000
 MO|     21              -0.638902             -17.385406               2.000000
 MO|     22              -0.598500             -16.286020               2.000000
 MO|     23              -0.565584             -15.390314               2.000000
 MO|     24              -0.550544             -14.981068               2.000000
 MO|     25              -0.534922             -14.555965               2.000000
 MO|     26              -0.483796             -13.164754               2.000000
 MO|     27              -0.470546             -12.804213               2.000000
 MO|     28              -0.457873             -12.459368               2.000000
 MO|     29              -0.412267             -11.218369               2.000000
 MO|     30              -0.407770             -11.095986               2.000000
 MO|     31              -0.406996             -11.074936               2.000000
 MO|     32              -0.406564             -11.063163               2.000000
 MO|     33              -0.399016             -10.857789               2.000000
 MO|     34              -0.371534             -10.109963               2.000000
 MO|     35              -0.369132             -10.044601               2.000000
 MO|     36              -0.366488              -9.972644               2.000000
 MO|     37              -0.350505              -9.537734               2.000000
 MO|     38              -0.348536              -9.484159               2.000000
 MO|     39              -0.324667              -8.834640               2.000000
 MO|     40              -0.315158              -8.575891               2.000000
 MO|     41              -0.306458              -8.339138               2.000000
 MO|     42              -0.295359              -8.037139               2.000000
 MO|     43              -0.286952              -7.808357               2.000000
 MO|     44              -0.274629              -7.473045               2.000000
 MO|     45              -0.224086              -6.097701               2.000000
 MO|     46              -0.221433              -6.025493               2.000000
 MO|     47              -0.205282              -5.585997               2.000000
 MO|     48              -0.187572              -5.104103               2.000000
 MO|     49              -0.051124              -1.391152               0.000000
 MO|     50              -0.027709              -0.754010               0.000000
 MO|     51              -0.025606              -0.696782               0.000000
 MO|     52              -0.015054              -0.409630               0.000000
 MO|     53              -0.001857              -0.050541               0.000000
 MO|     54               0.000361               0.009833               0.000000
 MO|     55               0.008272               0.225091               0.000000
 MO|     56               0.018854               0.513052               0.000000
 MO|     57               0.029112               0.792190               0.000000
 MO|     58               0.041159               1.119982               0.000000
 MO|     59               0.043706               1.189307               0.000000
 MO|     60               0.045532               1.238997               0.000000
 MO|     61               0.045616               1.241275               0.000000
 MO|     62               0.052749               1.435367               0.000000
 MO|     63               0.070122               1.908111               0.000000
 MO|     64               0.073005               1.986555               0.000000
 MO|     65               0.073575               2.002089               0.000000
 MO|     66               0.088714               2.414021               0.000000
 MO|     67               0.091829               2.498806               0.000000
 MO|     68               0.098325               2.675558               0.000000
 MO|     69               0.101518               2.762458               0.000000
 MO|     70               0.111688               3.039198               0.000000
 MO|     71               0.115933               3.154698               0.000000
 MO|     72               0.116278               3.164080               0.000000
 MO|     73               0.121101               3.295319               0.000000
 MO|     74               0.140378               3.819889               0.000000
 MO|     75               0.140733               3.829553               0.000000
 MO|     76               0.142833               3.886682               0.000000
 MO|     77               0.143422               3.902709               0.000000
 MO|     78               0.151996               4.136029               0.000000
 MO|     79               0.159259               4.333670               0.000000
 MO|     80               0.174290               4.742683               0.000000
 MO|     81               0.180047               4.899333               0.000000
 MO|     82               0.185100               5.036821               0.000000
 MO|     83               0.190529               5.184565               0.000000
 MO|     84               0.190669               5.188374               0.000000
 MO|     85               0.199429               5.426747               0.000000
 MO|     86               0.211539               5.756257               0.000000
 MO|     87               0.217571               5.920413               0.000000
 MO|     88               0.220463               5.999112               0.000000
 MO|     89               0.221749               6.034090               0.000000
 MO|     90               0.230775               6.279702               0.000000
 MO|     91               0.236847               6.444941               0.000000
 MO|     92               0.244232               6.645889               0.000000
 MO|     93               0.244693               6.658447               0.000000
 MO|     94               0.246581               6.709808               0.000000
 MO|     95               0.259638               7.065117               0.000000
 MO|     96               0.264219               7.189770               0.000000
 MO|     97               0.273882               7.452700               0.000000
 MO|     98               0.279294               7.599980               0.000000
 MO|     99               0.281559               7.661601               0.000000
 MO|    100               0.299970               8.162590               0.000000
 MO|    101               0.302315               8.226414               0.000000
 MO|    102               0.303461               8.257594               0.000000
 MO|    103               0.306439               8.338620               0.000000
 MO|    104               0.317182               8.630954               0.000000
 MO|    105               0.328612               8.941989               0.000000
 MO|    106               0.329809               8.974567               0.000000
 MO|    107               0.339754               9.245171               0.000000
 MO|    108               0.345180               9.392816               0.000000
 MO|    109               0.349989               9.523684               0.000000
 MO|    110               0.354392               9.643487               0.000000
 MO|    111               0.368331              10.022792               0.000000
 MO|    112               0.377406              10.269727               0.000000
 MO|    113               0.390065              10.614217               0.000000
 MO|    114               0.417410              11.358311               0.000000
 MO|    115               0.434786              11.831122               0.000000
 MO|    116               0.449981              12.244604               0.000000
 MO|    117               0.450078              12.247243               0.000000
 MO|    118               0.476037              12.953614               0.000000
 MO|    119               0.488174              13.283894               0.000000
 MO|    120               0.505064              13.743501               0.000000
 MO|    121               0.523364              14.241469               0.000000
 MO|    122               0.555180              15.107218               0.000000
 MO|    123               0.561490              15.278928               0.000000
 MO|    124               0.588931              16.025640               0.000000
 MO|    125               0.597308              16.253576               0.000000
 MO|    126               0.603584              16.424362               0.000000
 MO|    127               0.606321              16.498823               0.000000
 MO|    128               0.616722              16.781860               0.000000
 MO|    129               0.621310              16.906693               0.000000
 MO|    130               0.629061              17.117624               0.000000
 MO|    131               0.648358              17.642725               0.000000
 MO|    132               0.662782              18.035215               0.000000
 MO|    133               0.723824              19.696252               0.000000
 MO|    134               0.724228              19.707249               0.000000
 MO|    135               0.733378              19.956243               0.000000
 MO|    136               0.735654              20.018150               0.000000
 MO|    137               0.745995              20.299564               0.000000
 MO|    138               0.747709              20.346195               0.000000
 MO|    139               0.762860              20.758467               0.000000
 MO|    140               0.772676              21.025591               0.000000
 MO|    141               0.783087              21.308875               0.000000
 MO|    142               0.789223              21.475839               0.000000
 MO|    143               0.793499              21.592200               0.000000
 MO|    144               0.797985              21.714278               0.000000
 MO|    145               0.801682              21.814864               0.000000
 MO|    146               0.812420              22.107064               0.000000
 MO|    147               0.814316              22.158665               0.000000
 MO|    148               0.825553              22.464429               0.000000
 MO| Sum:                                                              96.000000
 MO| E(Fermi):           -0.061660 a.u.         -1.677860 eV
 MO| Band gap:            0.136448 a.u.          3.712952 eV

    32 Broy./Diag. 0.40E+00    0.2     0.00000231      -533.8404614454 -3.19E-05
  Decoupling Energy:                                              -0.0000080852

 MO| EIGENVALUES AND OCCUPATION NUMBERS AFTER SCF STEP 32
 MO|
 MO|  Index      Eigenvalue [a.u.]        Eigenvalue [eV]             Occupation
 MO|      1              -9.792096            -266.456478               2.000000
 MO|      2              -9.792065            -266.455637               2.000000
 MO|      3              -9.791917            -266.451617               2.000000
 MO|      4              -9.791891            -266.450896               2.000000
 MO|      5              -9.785990            -266.290322               2.000000
 MO|      6              -9.785986            -266.290235               2.000000
 MO|      7              -9.785905            -266.288023               2.000000
 MO|      8              -9.785888            -266.287567               2.000000
 MO|      9              -9.781876            -266.178392               2.000000
 MO|     10              -9.781873            -266.178292               2.000000
 MO|     11              -9.781532            -266.169020               2.000000
 MO|     12              -9.781528            -266.168916               2.000000
 MO|     13              -9.781088            -266.156952               2.000000
 MO|     14              -9.780974            -266.153850               2.000000
 MO|     15              -0.816301             -22.212669               2.000000
 MO|     16              -0.779055             -21.199163               2.000000
 MO|     17              -0.736556             -20.042704               2.000000
 MO|     18              -0.734921             -19.998205               2.000000
 MO|     19              -0.680131             -18.507306               2.000000
 MO|     20              -0.675162             -18.372081               2.000000
 MO|     21              -0.638900             -17.385341               2.000000
 MO|     22              -0.598498             -16.285958               2.000000
 MO|     23              -0.565581             -15.390245               2.000000
 MO|     24              -0.550542             -14.981004               2.000000
 MO|     25              -0.534919             -14.555897               2.000000
 MO|     26              -0.483793             -13.164690               2.000000
 MO|     27              -0.470544             -12.804150               2.000000
 MO|     28              -0.457871             -12.459300               2.000000
 MO|     29              -0.412265             -11.218298               2.000000
 MO|     30              -0.407768             -11.095922               2.000000
 MO|     31              -0.406994             -11.074876               2.000000
 MO|     32              -0.406561             -11.063094               2.000000
 MO|     33              -0.399014             -10.857726               2.000000
 MO|     34              -0.371532             -10.109898               2.000000
 MO|     35              -0.369130             -10.044531               2.000000
 MO|     36              -0.366485              -9.972577               2.000000
 MO|     37              -0.350503              -9.537672               2.000000
 MO|     38              -0.348534              -9.484095               2.000000
 MO|     39              -0.324665              -8.834580               2.000000
 MO|     40              -0.315156              -8.575830               2.000000
 MO|     41              -0.306455              -8.339070               2.000000
 MO|     42              -0.295357              -8.037080               2.000000
 MO|     43              -0.286949              -7.808289               2.000000
 MO|     44              -0.274627              -7.472983               2.000000
 MO|     45              -0.224084              -6.097640               2.000000
 MO|     46              -0.221431              -6.025435               2.000000
 MO|     47              -0.205279              -5.585935               2.000000
 MO|     48              -0.187570              -5.104041               2.000000
 MO|     49              -0.051122              -1.391096               0.000000
 MO|     50              -0.027707              -0.753952               0.000000
 MO|     51              -0.025604              -0.696726               0.000000
 MO|     52              -0.015052              -0.409576               0.000000
 MO|     53              -0.001858              -0.050551               0.000000
 MO|     54               0.000360               0.009800               0.000000
 MO|     55               0.008271               0.225057               0.000000
 MO|     56               0.018854               0.513054               0.000000
 MO|     57               0.029109               0.792100               0.000000
 MO|     58               0.041159               1.120005               0.000000
 MO|     59               0.043706               1.189302               0.000000
 MO|     60               0.045531               1.238953               0.000000
 MO|     61               0.045613               1.241193               0.000000
 MO|     62               0.052750               1.435409               0.000000
 MO|     63               0.070119               1.908046               0.000000
 MO|     64               0.073005               1.986573               0.000000
 MO|     65               0.073575               2.002070               0.000000
 MO|     66               0.088713               2.413993               0.000000
 MO|     67               0.091830               2.498830               0.000000
 MO|     68               0.098325               2.675558               0.000000
 MO|     69               0.101519               2.762473               0.000000
 MO|     70               0.111689               3.039201               0.000000
 MO|     71               0.115932               3.154674               0.000000
 MO|     72               0.116279               3.164109               0.000000
 MO|     73               0.121099               3.295284               0.000000
 MO|     74               0.140378               3.819879               0.000000
 MO|     75               0.140734               3.829562               0.000000
 MO|     76               0.142834               3.886708               0.000000
 MO|     77               0.143422               3.902723               0.000000
 MO|     78               0.151996               4.136024               0.000000
 MO|     79               0.159258               4.333620               0.000000
 MO|     80               0.174290               4.742673               0.000000
 MO|     81               0.180045               4.899268               0.000000
 MO|     82               0.185099               5.036808               0.000000
 MO|     83               0.190529               5.184546               0.000000
 MO|     84               0.190669               5.188363               0.000000
 MO|     85               0.199429               5.426744               0.000000
 MO|     86               0.211539               5.756262               0.000000
 MO|     87               0.217570               5.920374               0.000000
 MO|     88               0.220461               5.999055               0.000000
 MO|     89               0.221748               6.034059               0.000000
 MO|     90               0.230773               6.279659               0.000000
 MO|     91               0.236849               6.444980               0.000000
 MO|     92               0.244233               6.645915               0.000000
 MO|     93               0.244692               6.658404               0.000000
 MO|     94               0.246580               6.709793               0.000000
 MO|     95               0.259636               7.065060               0.000000
 MO|     96               0.264218               7.189748               0.000000
 MO|     97               0.273879               7.452640               0.000000
 MO|     98               0.279294               7.599985               0.000000
 MO|     99               0.281558               7.661580               0.000000
 MO|    100               0.299970               8.162604               0.000000
 MO|    101               0.302315               8.226396               0.000000
 MO|    102               0.303459               8.257533               0.000000
 MO|    103               0.306438               8.338605               0.000000
 MO|    104               0.317182               8.630960               0.000000
 MO|    105               0.328611               8.941957               0.000000
 MO|    106               0.329810               8.974576               0.000000
 MO|    107               0.339755               9.245206               0.000000
 MO|    108               0.345179               9.392808               0.000000
 MO|    109               0.349990               9.523707               0.000000
 MO|    110               0.354392               9.643491               0.000000
 MO|    111               0.368330              10.022768               0.000000
 MO|    112               0.377402              10.269618               0.000000
 MO|    113               0.390064              10.614173               0.000000
 MO|    114               0.417411              11.358326               0.000000
 MO|    115               0.434787              11.831142               0.000000
 MO|    116               0.449976              12.244467               0.000000
 MO|    117               0.450079              12.247274               0.000000
 MO|    118               0.476038              12.953645               0.000000
 MO|    119               0.488175              13.283911               0.000000
 MO|    120               0.505064              13.743491               0.000000
 MO|    121               0.523363              14.241421               0.000000
 MO|    122               0.555179              15.107197               0.000000
 MO|    123               0.561492              15.278976               0.000000
 MO|    124               0.588932              16.025646               0.000000
 MO|    125               0.597310              16.253643               0.000000
 MO|    126               0.603586              16.424400               0.000000
 MO|    127               0.606323              16.498879               0.000000
 MO|    128               0.616721              16.781829               0.000000
 MO|    129               0.621310              16.906717               0.000000
 MO|    130               0.629064              17.117692               0.000000
 MO|    131               0.648360              17.642780               0.000000
 MO|    132               0.662783              18.035237               0.000000
 MO|    133               0.723826              19.696296               0.000000
 MO|    134               0.724230              19.707302               0.000000
 MO|    135               0.733380              19.956275               0.000000
 MO|    136               0.735655              20.018204               0.000000
 MO|    137               0.745997              20.299613               0.000000
 MO|    138               0.747710              20.346229               0.000000
 MO|    139               0.762861              20.758511               0.000000
 MO|    140               0.772678              21.025643               0.000000
 MO|    141               0.783085              21.308829               0.000000
 MO|    142               0.789222              21.475835               0.000000
 MO|    143               0.793499              21.592199               0.000000
 MO|    144               0.797985              21.714289               0.000000
 MO|    145               0.801684              21.814919               0.000000
 MO|    146               0.812421              22.107102               0.000000
 MO|    147               0.814318              22.158708               0.000000
 MO|    148               0.825555              22.464481               0.000000
 MO| Sum:                                                              96.000000
 MO| E(Fermi):           -0.061658 a.u.         -1.677804 eV
 MO| Band gap:            0.136448 a.u.          3.712945 eV

    33 Broy./Diag. 0.40E+00    0.2     0.00000143      -533.8404797611 -1.83E-05
  Decoupling Energy:                                              -0.0000080826

 MO| EIGENVALUES AND OCCUPATION NUMBERS AFTER SCF STEP 33
 MO|
 MO|  Index      Eigenvalue [a.u.]        Eigenvalue [eV]             Occupation
 MO|      1              -9.792095            -266.456448               2.000000
 MO|      2              -9.792064            -266.455606               2.000000
 MO|      3              -9.791916            -266.451586               2.000000
 MO|      4              -9.791890            -266.450866               2.000000
 MO|      5              -9.785989            -266.290291               2.000000
 MO|      6              -9.785985            -266.290204               2.000000
 MO|      7              -9.785904            -266.287992               2.000000
 MO|      8              -9.785887            -266.287536               2.000000
 MO|      9              -9.781875            -266.178366               2.000000
 MO|     10              -9.781872            -266.178266               2.000000
 MO|     11              -9.781531            -266.168994               2.000000
 MO|     12              -9.781527            -266.168890               2.000000
 MO|     13              -9.781087            -266.156916               2.000000
 MO|     14              -9.780973            -266.153813               2.000000
 MO|     15              -0.816299             -22.212626               2.000000
 MO|     16              -0.779053             -21.199122               2.000000
 MO|     17              -0.736554             -20.042663               2.000000
 MO|     18              -0.734919             -19.998164               2.000000
 MO|     19              -0.680129             -18.507265               2.000000
 MO|     20              -0.675160             -18.372042               2.000000
 MO|     21              -0.638898             -17.385300               2.000000
 MO|     22              -0.598497             -16.285920               2.000000
 MO|     23              -0.565580             -15.390205               2.000000
 MO|     24              -0.550540             -14.980964               2.000000
 MO|     25              -0.534918             -14.555856               2.000000
 MO|     26              -0.483792             -13.164653               2.000000
 MO|     27              -0.470542             -12.804111               2.000000
 MO|     28              -0.457869             -12.459261               2.000000
 MO|     29              -0.412263             -11.218258               2.000000
 MO|     30              -0.407766             -11.095881               2.000000
 MO|     31              -0.406993             -11.074839               2.000000
 MO|     32              -0.406560             -11.063056               2.000000
 MO|     33              -0.399013             -10.857687               2.000000
 MO|     34              -0.371530             -10.109858               2.000000
 MO|     35              -0.369128             -10.044490               2.000000
 MO|     36              -0.366484              -9.972537               2.000000
 MO|     37              -0.350502              -9.537632               2.000000
 MO|     38              -0.348533              -9.484057               2.000000
 MO|     39              -0.324663              -8.834539               2.000000
 MO|     40              -0.315155              -8.575794               2.000000
 MO|     41              -0.306454              -8.339031               2.000000
 MO|     42              -0.295356              -8.037040               2.000000
 MO|     43              -0.286948              -7.808249               2.000000
 MO|     44              -0.274626              -7.472945               2.000000
 MO|     45              -0.224083              -6.097599               2.000000
 MO|     46              -0.221429              -6.025395               2.000000
 MO|     47              -0.205278              -5.585894               2.000000
 MO|     48              -0.187569              -5.104001               2.000000
 MO|     49              -0.051120              -1.391058               0.000000
 MO|     50              -0.027706              -0.753914               0.000000
 MO|     51              -0.025603              -0.696687               0.000000
 MO|     52              -0.015050              -0.409540               0.000000
 MO|     53              -0.001858              -0.050560               0.000000
 MO|     54               0.000359               0.009772               0.000000
 MO|     55               0.008270               0.225047               0.000000
 MO|     56               0.018855               0.513062               0.000000
 MO|     57               0.029107               0.792048               0.000000
 MO|     58               0.041160               1.120021               0.000000
 MO|     59               0.043705               1.189276               0.000000
 MO|     60               0.045529               1.238919               0.000000
 MO|     61               0.045612               1.241158               0.000000
 MO|     62               0.052751               1.435431               0.000000
 MO|     63               0.070118               1.908004               0.000000
 MO|     64               0.073006               1.986603               0.000000
 MO|     65               0.073574               2.002064               0.000000
 MO|     66               0.088711               2.413936               0.000000
 MO|     67               0.091831               2.498856               0.000000
 MO|     68               0.098325               2.675567               0.000000
 MO|     69               0.101519               2.762481               0.000000
 MO|     70               0.111689               3.039212               0.000000
 MO|     71               0.115932               3.154671               0.000000
 MO|     72               0.116280               3.164137               0.000000
 MO|     73               0.121098               3.295251               0.000000
 MO|     74               0.140378               3.819871               0.000000
 MO|     75               0.140735               3.829582               0.000000
 MO|     76               0.142834               3.886719               0.000000
 MO|     77               0.143423               3.902734               0.000000
 MO|     78               0.151996               4.136017               0.000000
 MO|     79               0.159256               4.333584               0.000000
 MO|     80               0.174289               4.742641               0.000000
 MO|     81               0.180043               4.899208               0.000000
 MO|     82               0.185099               5.036807               0.000000
 MO|     83               0.190528               5.184520               0.000000
 MO|     84               0.190668               5.188330               0.000000
 MO|     85               0.199430               5.426759               0.000000
 MO|     86               0.211539               5.756264               0.000000
 MO|     87               0.217569               5.920342               0.000000
 MO|     88               0.220458               5.998971               0.000000
 MO|     89               0.221745               6.033986               0.000000
 MO|     90               0.230772               6.279620               0.000000
 MO|     91               0.236850               6.445004               0.000000
 MO|     92               0.244233               6.645919               0.000000
 MO|     93               0.244690               6.658359               0.000000
 MO|     94               0.246580               6.709785               0.000000
 MO|     95               0.259634               7.065005               0.000000
 MO|     96               0.264218               7.189727               0.000000
 MO|     97               0.273876               7.452558               0.000000
 MO|     98               0.279294               7.599978               0.000000
 MO|     99               0.281557               7.661549               0.000000
 MO|    100               0.299969               8.162580               0.000000
 MO|    101               0.302314               8.226373               0.000000
 MO|    102               0.303456               8.257460               0.000000
 MO|    103               0.306438               8.338597               0.000000
 MO|    104               0.317182               8.630955               0.000000
 MO|    105               0.328610               8.941937               0.000000
 MO|    106               0.329809               8.974557               0.000000
 MO|    107               0.339755               9.245213               0.000000
 MO|    108               0.345179               9.392795               0.000000
 MO|    109               0.349990               9.523717               0.000000
 MO|    110               0.354392               9.643490               0.000000
 MO|    111               0.368329              10.022754               0.000000
 MO|    112               0.377399              10.269538               0.000000
 MO|    113               0.390063              10.614144               0.000000
 MO|    114               0.417411              11.358320               0.000000
 MO|    115               0.434787              11.831152               0.000000
 MO|    116               0.449970              12.244317               0.000000
 MO|    117               0.450079              12.247272               0.000000
 MO|    118               0.476038              12.953656               0.000000
 MO|    119               0.488174              13.283898               0.000000
 MO|    120               0.505063              13.743464               0.000000
 MO|    121               0.523360              14.241363               0.000000
 MO|    122               0.555178              15.107161               0.000000
 MO|    123               0.561492              15.278987               0.000000
 MO|    124               0.588931              16.025640               0.000000
 MO|    125               0.597310              16.253643               0.000000
 MO|    126               0.603586              16.424412               0.000000
 MO|    127               0.606324              16.498916               0.000000
 MO|    128               0.616720              16.781804               0.000000
 MO|    129               0.621311              16.906725               0.000000
 MO|    130               0.629063              17.117684               0.000000
 MO|    131               0.648361              17.642808               0.000000
 MO|    132               0.662783              18.035243               0.000000
 MO|    133               0.723827              19.696326               0.000000
 MO|    134               0.724231              19.707316               0.000000
 MO|    135               0.733380              19.956280               0.000000
 MO|    136               0.735657              20.018234               0.000000
 MO|    137               0.745998              20.299645               0.000000
 MO|    138               0.747711              20.346238               0.000000
 MO|    139               0.762862              20.758541               0.000000
 MO|    140               0.772678              21.025651               0.000000
 MO|    141               0.783082              21.308752               0.000000
 MO|    142               0.789221              21.475798               0.000000
 MO|    143               0.793498              21.592183               0.000000
 MO|    144               0.797985              21.714272               0.000000
 MO|    145               0.801685              21.814954               0.000000
 MO|    146               0.812422              22.107127               0.000000
 MO|    147               0.814319              22.158736               0.000000
 MO|    148               0.825555              22.464503               0.000000
 MO| Sum:                                                              96.000000
 MO| E(Fermi):           -0.061657 a.u.         -1.677766 eV
 MO| Band gap:            0.136448 a.u.          3.712943 eV

    34 Broy./Diag. 0.40E+00    0.3     0.00000114      -533.8404676181  1.21E-05
  Decoupling Energy:                                              -0.0000080802

 MO| EIGENVALUES AND OCCUPATION NUMBERS AFTER SCF STEP 34
 MO|
 MO|  Index      Eigenvalue [a.u.]        Eigenvalue [eV]             Occupation
 MO|      1              -9.792094            -266.456432               2.000000
 MO|      2              -9.792063            -266.455591               2.000000
 MO|      3              -9.791915            -266.451571               2.000000
 MO|      4              -9.791889            -266.450850               2.000000
 MO|      5              -9.785988            -266.290274               2.000000
 MO|      6              -9.785985            -266.290187               2.000000
 MO|      7              -9.785903            -266.287975               2.000000
 MO|      8              -9.785887            -266.287519               2.000000
 MO|      9              -9.781875            -266.178351               2.000000
 MO|     10              -9.781871            -266.178250               2.000000
 MO|     11              -9.781530            -266.168978               2.000000
 MO|     12              -9.781527            -266.168875               2.000000
 MO|     13              -9.781086            -266.156893               2.000000
 MO|     14              -9.780972            -266.153791               2.000000
 MO|     15              -0.816298             -22.212605               2.000000
 MO|     16              -0.779053             -21.199103               2.000000
 MO|     17              -0.736554             -20.042645               2.000000
 MO|     18              -0.734918             -19.998143               2.000000
 MO|     19              -0.680129             -18.507246               2.000000
 MO|     20              -0.675160             -18.372024               2.000000
 MO|     21              -0.638897             -17.385283               2.000000
 MO|     22              -0.598496             -16.285902               2.000000
 MO|     23              -0.565579             -15.390187               2.000000
 MO|     24              -0.550540             -14.980948               2.000000
 MO|     25              -0.534917             -14.555841               2.000000
 MO|     26              -0.483792             -13.164638               2.000000
 MO|     27              -0.470542             -12.804095               2.000000
 MO|     28              -0.457869             -12.459245               2.000000
 MO|     29              -0.412263             -11.218239               2.000000
 MO|     30              -0.407765             -11.095859               2.000000
 MO|     31              -0.406992             -11.074823               2.000000
 MO|     32              -0.406559             -11.063043               2.000000
 MO|     33              -0.399012             -10.857670               2.000000
 MO|     34              -0.371530             -10.109842               2.000000
 MO|     35              -0.369128             -10.044473               2.000000
 MO|     36              -0.366483              -9.972515               2.000000
 MO|     37              -0.350501              -9.537615               2.000000
 MO|     38              -0.348532              -9.484041               2.000000
 MO|     39              -0.324663              -8.834520               2.000000
 MO|     40              -0.315154              -8.575782               2.000000
 MO|     41              -0.306453              -8.339016               2.000000
 MO|     42              -0.295355              -8.037022               2.000000
 MO|     43              -0.286947              -7.808231               2.000000
 MO|     44              -0.274625              -7.472929               2.000000
 MO|     45              -0.224082              -6.097579               2.000000
 MO|     46              -0.221428              -6.025376               2.000000
 MO|     47              -0.205277              -5.585875               2.000000
 MO|     48              -0.187568              -5.103981               2.000000
 MO|     49              -0.051120              -1.391038               0.000000
 MO|     50              -0.027705              -0.753894               0.000000
 MO|     51              -0.025602              -0.696669               0.000000
 MO|     52              -0.015050              -0.409519               0.000000
 MO|     53              -0.001858              -0.050549               0.000000
 MO|     54               0.000359               0.009780               0.000000
 MO|     55               0.008271               0.225064               0.000000
 MO|     56               0.018855               0.513083               0.000000
 MO|     57               0.029107               0.792051               0.000000
 MO|     58               0.041161               1.120044               0.000000
 MO|     59               0.043705               1.189264               0.000000
 MO|     60               0.045530               1.238922               0.000000
 MO|     61               0.045613               1.241180               0.000000
 MO|     62               0.052752               1.435444               0.000000
 MO|     63               0.070118               1.908014               0.000000
 MO|     64               0.073007               1.986629               0.000000
 MO|     65               0.073575               2.002077               0.000000
 MO|     66               0.088710               2.413910               0.000000
 MO|     67               0.091832               2.498881               0.000000
 MO|     68               0.098326               2.675589               0.000000
 MO|     69               0.101520               2.762488               0.000000
 MO|     70               0.111690               3.039235               0.000000
 MO|     71               0.115933               3.154688               0.000000
 MO|     72               0.116281               3.164160               0.000000
 MO|     73               0.121098               3.295255               0.000000
 MO|     74               0.140378               3.819886               0.000000
 MO|     75               0.140736               3.829613               0.000000
 MO|     76               0.142835               3.886737               0.000000
 MO|     77               0.143423               3.902750               0.000000
 MO|     78               0.151996               4.136032               0.000000
 MO|     79               0.159256               4.333586               0.000000
 MO|     80               0.174288               4.742628               0.000000
 MO|     81               0.180042               4.899193               0.000000
 MO|     82               0.185100               5.036831               0.000000
 MO|     83               0.190528               5.184530               0.000000
 MO|     84               0.190668               5.188328               0.000000
 MO|     85               0.199431               5.426793               0.000000
 MO|     86               0.211540               5.756290               0.000000
 MO|     87               0.217569               5.920357               0.000000
 MO|     88               0.220457               5.998950               0.000000
 MO|     89               0.221744               6.033956               0.000000
 MO|     90               0.230772               6.279617               0.000000
 MO|     91               0.236850               6.445019               0.000000
 MO|     92               0.244233               6.645929               0.000000
 MO|     93               0.244690               6.658352               0.000000
 MO|     94               0.246581               6.709815               0.000000
 MO|     95               0.259635               7.065017               0.000000
 MO|     96               0.264219               7.189754               0.000000
 MO|     97               0.273875               7.452530               0.000000
 MO|     98               0.279294               7.599981               0.000000
 MO|     99               0.281557               7.661546               0.000000
 MO|    100               0.299969               8.162572               0.000000
 MO|    101               0.302314               8.226389               0.000000
 MO|    102               0.303455               8.257438               0.000000
 MO|    103               0.306438               8.338608               0.000000
 MO|    104               0.317183               8.630975               0.000000
 MO|    105               0.328611               8.941949               0.000000
 MO|    106               0.329809               8.974555               0.000000
 MO|    107               0.339756               9.245218               0.000000
 MO|    108               0.345179               9.392803               0.000000
 MO|    109               0.349991               9.523739               0.000000
 MO|    110               0.354392               9.643506               0.000000
 MO|    111               0.368330              10.022768               0.000000
 MO|    112               0.377399              10.269536               0.000000
 MO|    113               0.390063              10.614159               0.000000
 MO|    114               0.417411              11.358318               0.000000
 MO|    115               0.434787              11.831167               0.000000
 MO|    116               0.449969              12.244275               0.000000
 MO|    117               0.450079              12.247285               0.000000
 MO|    118               0.476039              12.953668               0.000000
 MO|    119               0.488174              13.283900               0.000000
 MO|    120               0.505063              13.743470               0.000000
 MO|    121               0.523360              14.241354               0.000000
 MO|    122               0.555178              15.107152               0.000000
 MO|    123               0.561493              15.278990               0.000000
 MO|    124               0.588932              16.025643               0.000000
 MO|    125               0.597310              16.253618               0.000000
 MO|    126               0.603586              16.424421               0.000000
 MO|    127               0.606325              16.498935               0.000000
 MO|    128               0.616720              16.781806               0.000000
 MO|    129               0.621311              16.906740               0.000000
 MO|    130               0.629062              17.117653               0.000000
 MO|    131               0.648362              17.642818               0.000000
 MO|    132               0.662783              18.035251               0.000000
 MO|    133               0.723827              19.696345               0.000000
 MO|    134               0.724231              19.707315               0.000000
 MO|    135               0.733380              19.956281               0.000000
 MO|    136               0.735657              20.018250               0.000000
 MO|    137               0.745999              20.299663               0.000000
 MO|    138               0.747711              20.346238               0.000000
 MO|    139               0.762863              20.758561               0.000000
 MO|    140               0.772678              21.025646               0.000000
 MO|    141               0.783082              21.308735               0.000000
 MO|    142               0.789220              21.475778               0.000000
 MO|    143               0.793498              21.592187               0.000000
 MO|    144               0.797985              21.714268               0.000000
 MO|    145               0.801686              21.814975               0.000000
 MO|    146               0.812423              22.107147               0.000000
 MO|    147               0.814319              22.158753               0.000000
 MO|    148               0.825556              22.464514               0.000000
 MO| Sum:                                                              96.000000
 MO| E(Fermi):           -0.061656 a.u.         -1.677746 eV
 MO| Band gap:            0.136448 a.u.          3.712943 eV

    35 Broy./Diag. 0.40E+00    0.2     0.00000122      -533.8404612229  6.40E-06
  Decoupling Energy:                                              -0.0000080784

 MO| EIGENVALUES AND OCCUPATION NUMBERS AFTER SCF STEP 35
 MO|
 MO|  Index      Eigenvalue [a.u.]        Eigenvalue [eV]             Occupation
 MO|      1              -9.792094            -266.456420               2.000000
 MO|      2              -9.792063            -266.455579               2.000000
 MO|      3              -9.791915            -266.451559               2.000000
 MO|      4              -9.791889            -266.450838               2.000000
 MO|      5              -9.785988            -266.290263               2.000000
 MO|      6              -9.785984            -266.290176               2.000000
 MO|      7              -9.785903            -266.287964               2.000000
 MO|      8              -9.785886            -266.287508               2.000000
 MO|      9              -9.781875            -266.178342               2.000000
 MO|     10              -9.781871            -266.178241               2.000000
 MO|     11              -9.781530            -266.168969               2.000000
 MO|     12              -9.781526            -266.168866               2.000000
 MO|     13              -9.781086            -266.156879               2.000000
 MO|     14              -9.780972            -266.153776               2.000000
 MO|     15              -0.816298             -22.212596               2.000000
 MO|     16              -0.779052             -21.199096               2.000000
 MO|     17              -0.736553             -20.042639               2.000000
 MO|     18              -0.734918             -19.998133               2.000000
 MO|     19              -0.680129             -18.507239               2.000000
 MO|     20              -0.675159             -18.372018               2.000000
 MO|     21              -0.638897             -17.385277               2.000000
 MO|     22              -0.598496             -16.285894               2.000000
 MO|     23              -0.565579             -15.390178               2.000000
 MO|     24              -0.550540             -14.980942               2.000000
 MO|     25              -0.534917             -14.555835               2.000000
 MO|     26              -0.483791             -13.164632               2.000000
 MO|     27              -0.470542             -12.804089               2.000000
 MO|     28              -0.457869             -12.459238               2.000000
 MO|     29              -0.412262             -11.218230               2.000000
 MO|     30              -0.407765             -11.095846               2.000000
 MO|     31              -0.406992             -11.074819               2.000000
 MO|     32              -0.406559             -11.063038               2.000000
 MO|     33              -0.399012             -10.857664               2.000000
 MO|     34              -0.371530             -10.109837               2.000000
 MO|     35              -0.369127             -10.044465               2.000000
 MO|     36              -0.366483              -9.972502               2.000000
 MO|     37              -0.350501              -9.537608               2.000000
 MO|     38              -0.348532              -9.484035               2.000000
 MO|     39              -0.324662              -8.834512               2.000000
 MO|     40              -0.315154              -8.575779               2.000000
 MO|     41              -0.306453              -8.339011               2.000000
 MO|     42              -0.295355              -8.037015               2.000000
 MO|     43              -0.286947              -7.808223               2.000000
 MO|     44              -0.274625              -7.472923               2.000000
 MO|     45              -0.224082              -6.097571               2.000000
 MO|     46              -0.221428              -6.025368               2.000000
 MO|     47              -0.205277              -5.585867               2.000000
 MO|     48              -0.187567              -5.103970               2.000000
 MO|     49              -0.051119              -1.391026               0.000000
 MO|     50              -0.027705              -0.753885               0.000000
 MO|     51              -0.025602              -0.696660               0.000000
 MO|     52              -0.015049              -0.409505               0.000000
 MO|     53              -0.001857              -0.050530               0.000000
 MO|     54               0.000360               0.009807               0.000000
 MO|     55               0.008272               0.225094               0.000000
 MO|     56               0.018856               0.513108               0.000000
 MO|     57               0.029109               0.792086               0.000000
 MO|     58               0.041162               1.120071               0.000000
 MO|     59               0.043704               1.189248               0.000000
 MO|     60               0.045530               1.238944               0.000000
 MO|     61               0.045615               1.241236               0.000000
 MO|     62               0.052751               1.435440               0.000000
 MO|     63               0.070120               1.908057               0.000000
 MO|     64               0.073008               1.986648               0.000000
 MO|     65               0.073576               2.002098               0.000000
 MO|     66               0.088709               2.413894               0.000000
 MO|     67               0.091833               2.498900               0.000000
 MO|     68               0.098327               2.675618               0.000000
 MO|     69               0.101520               2.762491               0.000000
 MO|     70               0.111691               3.039264               0.000000
 MO|     71               0.115934               3.154714               0.000000
 MO|     72               0.116282               3.164183               0.000000
 MO|     73               0.121099               3.295279               0.000000
 MO|     74               0.140379               3.819914               0.000000
 MO|     75               0.140737               3.829647               0.000000
 MO|     76               0.142835               3.886745               0.000000
 MO|     77               0.143424               3.902768               0.000000
 MO|     78               0.151997               4.136057               0.000000
 MO|     79               0.159257               4.333607               0.000000
 MO|     80               0.174288               4.742622               0.000000
 MO|     81               0.180042               4.899200               0.000000
 MO|     82               0.185101               5.036868               0.000000
 MO|     83               0.190529               5.184563               0.000000
 MO|     84               0.190668               5.188343               0.000000
 MO|     85               0.199433               5.426839               0.000000
 MO|     86               0.211541               5.756333               0.000000
 MO|     87               0.217570               5.920394               0.000000
 MO|     88               0.220458               5.998960               0.000000
 MO|     89               0.221744               6.033948               0.000000
 MO|     90               0.230772               6.279636               0.000000
 MO|     91               0.236850               6.445028               0.000000
 MO|     92               0.244234               6.645943               0.000000
 MO|     93               0.244690               6.658364               0.000000
 MO|     94               0.246583               6.709861               0.000000
 MO|     95               0.259637               7.065071               0.000000
 MO|     96               0.264221               7.189807               0.000000
 MO|     97               0.273875               7.452530               0.000000
 MO|     98               0.279294               7.599989               0.000000
 MO|     99               0.281557               7.661557               0.000000
 MO|    100               0.299969               8.162571               0.000000
 MO|    101               0.302316               8.226434               0.000000
 MO|    102               0.303455               8.257444               0.000000
 MO|    103               0.306439               8.338623               0.000000
 MO|    104               0.317184               8.631010               0.000000
 MO|    105               0.328612               8.941982               0.000000
 MO|    106               0.329809               8.974564               0.000000
 MO|    107               0.339756               9.245223               0.000000
 MO|    108               0.345180               9.392827               0.000000
 MO|    109               0.349992               9.523769               0.000000
 MO|    110               0.354393               9.643532               0.000000
 MO|    111               0.368331              10.022799               0.000000
 MO|    112               0.377400              10.269581               0.000000
 MO|    113               0.390065              10.614197               0.000000
 MO|    114               0.417411              11.358318               0.000000
 MO|    115               0.434788              11.831184               0.000000
 MO|    116               0.449970              12.244301               0.000000
 MO|    117               0.450080              12.247309               0.000000
 MO|    118               0.476039              12.953685               0.000000
 MO|    119               0.488175              13.283915               0.000000
 MO|    120               0.505064              13.743497               0.000000
 MO|    121               0.523361              14.241370               0.000000
 MO|    122               0.555178              15.107154               0.000000
 MO|    123               0.561493              15.278988               0.000000
 MO|    124               0.588932              16.025650               0.000000
 MO|    125               0.597308              16.253568               0.000000
 MO|    126               0.603587              16.424430               0.000000
 MO|    127               0.606325              16.498942               0.000000
 MO|    128               0.616721              16.781823               0.000000
 MO|    129               0.621312              16.906761               0.000000
 MO|    130               0.629060              17.117599               0.000000
 MO|    131               0.648362              17.642819               0.000000
 MO|    132               0.662784              18.035261               0.000000
 MO|    133               0.723828              19.696359               0.000000
 MO|    134               0.724230              19.707299               0.000000
 MO|    135               0.733380              19.956279               0.000000
 MO|    136               0.735658              20.018261               0.000000
 MO|    137               0.745999              20.299674               0.000000
 MO|    138               0.747710              20.346231               0.000000
 MO|    139               0.762864              20.758578               0.000000
 MO|    140               0.772678              21.025630               0.000000
 MO|    141               0.783082              21.308758               0.000000
 MO|    142               0.789220              21.475765               0.000000
 MO|    143               0.793499              21.592205               0.000000
 MO|    144               0.797985              21.714272               0.000000
 MO|    145               0.801686              21.814988               0.000000
 MO|    146               0.812423              22.107165               0.000000
 MO|    147               0.814320              22.158765               0.000000
 MO|    148               0.825556              22.464519               0.000000
 MO| Sum:                                                              96.000000
 MO| E(Fermi):           -0.061656 a.u.         -1.677734 eV
 MO| Band gap:            0.136448 a.u.          3.712944 eV

    36 Broy./Diag. 0.40E+00    0.2     0.00000186      -533.8404657893 -4.57E-06
  Decoupling Energy:                                              -0.0000080778

 MO| EIGENVALUES AND OCCUPATION NUMBERS AFTER SCF STEP 36
 MO|
 MO|  Index      Eigenvalue [a.u.]        Eigenvalue [eV]             Occupation
 MO|      1              -9.792094            -266.456419               2.000000
 MO|      2              -9.792063            -266.455577               2.000000
 MO|      3              -9.791915            -266.451557               2.000000
 MO|      4              -9.791889            -266.450837               2.000000
 MO|      5              -9.785988            -266.290263               2.000000
 MO|      6              -9.785984            -266.290176               2.000000
 MO|      7              -9.785903            -266.287965               2.000000
 MO|      8              -9.785886            -266.287509               2.000000
 MO|      9              -9.781875            -266.178345               2.000000
 MO|     10              -9.781871            -266.178244               2.000000
 MO|     11              -9.781530            -266.168972               2.000000
 MO|     12              -9.781526            -266.168869               2.000000
 MO|     13              -9.781086            -266.156877               2.000000
 MO|     14              -9.780972            -266.153774               2.000000
 MO|     15              -0.816298             -22.212595               2.000000
 MO|     16              -0.779052             -21.199096               2.000000
 MO|     17              -0.736553             -20.042640               2.000000
 MO|     18              -0.734918             -19.998132               2.000000
 MO|     19              -0.680129             -18.507239               2.000000
 MO|     20              -0.675159             -18.372019               2.000000
 MO|     21              -0.638897             -17.385277               2.000000
 MO|     22              -0.598496             -16.285895               2.000000
 MO|     23              -0.565579             -15.390177               2.000000
 MO|     24              -0.550540             -14.980943               2.000000
 MO|     25              -0.534917             -14.555835               2.000000
 MO|     26              -0.483791             -13.164633               2.000000
 MO|     27              -0.470542             -12.804090               2.000000
 MO|     28              -0.457869             -12.459239               2.000000
 MO|     29              -0.412262             -11.218229               2.000000
 MO|     30              -0.407765             -11.095844               2.000000
 MO|     31              -0.406992             -11.074820               2.000000
 MO|     32              -0.406559             -11.063039               2.000000
 MO|     33              -0.399012             -10.857665               2.000000
 MO|     34              -0.371530             -10.109838               2.000000
 MO|     35              -0.369127             -10.044465               2.000000
 MO|     36              -0.366483              -9.972500               2.000000
 MO|     37              -0.350501              -9.537608               2.000000
 MO|     38              -0.348532              -9.484036               2.000000
 MO|     39              -0.324662              -8.834511               2.000000
 MO|     40              -0.315154              -8.575781               2.000000
 MO|     41              -0.306453              -8.339012               2.000000
 MO|     42              -0.295355              -8.037015               2.000000
 MO|     43              -0.286947              -7.808223               2.000000
 MO|     44              -0.274625              -7.472924               2.000000
 MO|     45              -0.224082              -6.097570               2.000000
 MO|     46              -0.221428              -6.025367               2.000000
 MO|     47              -0.205277              -5.585867               2.000000
 MO|     48              -0.187567              -5.103969               2.000000
 MO|     49              -0.051119              -1.391024               0.000000
 MO|     50              -0.027705              -0.753883               0.000000
 MO|     51              -0.025602              -0.696658               0.000000
 MO|     52              -0.015049              -0.409502               0.000000
 MO|     53              -0.001857              -0.050521               0.000000
 MO|     54               0.000361               0.009821               0.000000
 MO|     55               0.008273               0.225122               0.000000
 MO|     56               0.018857               0.513123               0.000000
 MO|     57               0.029110               0.792125               0.000000
 MO|     58               0.041162               1.120077               0.000000
 MO|     59               0.043703               1.189232               0.000000
 MO|     60               0.045531               1.238965               0.000000
 MO|     61               0.045617               1.241290               0.000000
 MO|     62               0.052751               1.435419               0.000000
 MO|     63               0.070121               1.908099               0.000000
 MO|     64               0.073008               1.986656               0.000000
 MO|     65               0.073576               2.002115               0.000000
 MO|     66               0.088708               2.413876               0.000000
 MO|     67               0.091833               2.498901               0.000000
 MO|     68               0.098328               2.675634               0.000000
 MO|     69               0.101520               2.762493               0.000000
 MO|     70               0.111692               3.039281               0.000000
 MO|     71               0.115934               3.154737               0.000000
 MO|     72               0.116282               3.164198               0.000000
 MO|     73               0.121100               3.295299               0.000000
 MO|     74               0.140380               3.819940               0.000000
 MO|     75               0.140738               3.829663               0.000000
 MO|     76               0.142834               3.886724               0.000000
 MO|     77               0.143425               3.902781               0.000000
 MO|     78               0.151997               4.136062               0.000000
 MO|     79               0.159258               4.333630               0.000000
 MO|     80               0.174288               4.742621               0.000000
 MO|     81               0.180043               4.899215               0.000000
 MO|     82               0.185102               5.036888               0.000000
 MO|     83               0.190530               5.184576               0.000000
 MO|     84               0.190668               5.188341               0.000000
 MO|     85               0.199434               5.426869               0.000000
 MO|     86               0.211543               5.756368               0.000000
 MO|     87               0.217571               5.920404               0.000000
 MO|     88               0.220457               5.998947               0.000000
 MO|     89               0.221743               6.033934               0.000000
 MO|     90               0.230773               6.279657               0.000000
 MO|     91               0.236851               6.445032               0.000000
 MO|     92               0.244234               6.645951               0.000000
 MO|     93               0.244691               6.658381               0.000000
 MO|     94               0.246583               6.709877               0.000000
 MO|     95               0.259638               7.065107               0.000000
 MO|     96               0.264221               7.189823               0.000000
 MO|     97               0.273876               7.452537               0.000000
 MO|     98               0.279295               7.599995               0.000000
 MO|     99               0.281557               7.661566               0.000000
 MO|    100               0.299969               8.162570               0.000000
 MO|    101               0.302317               8.226476               0.000000
 MO|    102               0.303456               8.257449               0.000000
 MO|    103               0.306439               8.338626               0.000000
 MO|    104               0.317184               8.631017               0.000000
 MO|    105               0.328613               8.942007               0.000000
 MO|    106               0.329809               8.974569               0.000000
 MO|    107               0.339756               9.245219               0.000000
 MO|    108               0.345181               9.392847               0.000000
 MO|    109               0.349993               9.523791               0.000000
 MO|    110               0.354394               9.643552               0.000000
 MO|    111               0.368332              10.022827               0.000000
 MO|    112               0.377402              10.269630               0.000000
 MO|    113               0.390065              10.614218               0.000000
 MO|    114               0.417410              11.358315               0.000000
 MO|    115               0.434788              11.831194               0.000000
 MO|    116               0.449971              12.244347               0.000000
 MO|    117               0.450081              12.247327               0.000000
 MO|    118               0.476039              12.953691               0.000000
 MO|    119               0.488175              13.283925               0.000000
 MO|    120               0.505065              13.743521               0.000000
 MO|    121               0.523361              14.241387               0.000000
 MO|    122               0.555178              15.107158               0.000000
 MO|    123               0.561492              15.278983               0.000000
 MO|    124               0.588932              16.025656               0.000000
 MO|    125               0.597306              16.253515               0.000000
 MO|    126               0.603587              16.424435               0.000000
 MO|    127               0.606325              16.498938               0.000000
 MO|    128               0.616721              16.781841               0.000000
 MO|    129               0.621313              16.906774               0.000000
 MO|    130               0.629058              17.117543               0.000000
 MO|    131               0.648361              17.642812               0.000000
 MO|    132               0.662784              18.035267               0.000000
 MO|    133               0.723828              19.696364               0.000000
 MO|    134               0.724229              19.707275               0.000000
 MO|    135               0.733379              19.956270               0.000000
 MO|    136               0.735658              20.018264               0.000000
 MO|    137               0.745999              20.299673               0.000000
 MO|    138               0.747710              20.346225               0.000000
 MO|    139               0.762864              20.758583               0.000000
 MO|    140               0.772677              21.025607               0.000000
 MO|    141               0.783083              21.308784               0.000000
 MO|    142               0.789220              21.475759               0.000000
 MO|    143               0.793499              21.592218               0.000000
 MO|    144               0.797985              21.714275               0.000000
 MO|    145               0.801686              21.814992               0.000000
 MO|    146               0.812424              22.107173               0.000000
 MO|    147               0.814320              22.158768               0.000000
 MO|    148               0.825556              22.464515               0.000000
 MO| Sum:                                                              96.000000
 MO| E(Fermi):           -0.061656 a.u.         -1.677732 eV
 MO| Band gap:            0.136448 a.u.          3.712945 eV

    37 Broy./Diag. 0.40E+00    0.2     0.00000168      -533.8404647726  1.02E-06
  Decoupling Energy:                                              -0.0000080773

 MO| EIGENVALUES AND OCCUPATION NUMBERS AFTER SCF STEP 37
 MO|
 MO|  Index      Eigenvalue [a.u.]        Eigenvalue [eV]             Occupation
 MO|      1              -9.792094            -266.456426               2.000000
 MO|      2              -9.792063            -266.455584               2.000000
 MO|      3              -9.791915            -266.451564               2.000000
 MO|      4              -9.791889            -266.450843               2.000000
 MO|      5              -9.785988            -266.290270               2.000000
 MO|      6              -9.785985            -266.290183               2.000000
 MO|      7              -9.785903            -266.287971               2.000000
 MO|      8              -9.785887            -266.287516               2.000000
 MO|      9              -9.781875            -266.178353               2.000000
 MO|     10              -9.781871            -266.178252               2.000000
 MO|     11              -9.781530            -266.168980               2.000000
 MO|     12              -9.781527            -266.168877               2.000000
 MO|     13              -9.781086            -266.156882               2.000000
 MO|     14              -9.780972            -266.153779               2.000000
 MO|     15              -0.816298             -22.212598               2.000000
 MO|     16              -0.779053             -21.199099               2.000000
 MO|     17              -0.736554             -20.042643               2.000000
 MO|     18              -0.734918             -19.998135               2.000000
 MO|     19              -0.680129             -18.507243               2.000000
 MO|     20              -0.675159             -18.372022               2.000000
 MO|     21              -0.638897             -17.385281               2.000000
 MO|     22              -0.598496             -16.285899               2.000000
 MO|     23              -0.565579             -15.390181               2.000000
 MO|     24              -0.550540             -14.980947               2.000000
 MO|     25              -0.534917             -14.555839               2.000000
 MO|     26              -0.483792             -13.164638               2.000000
 MO|     27              -0.470542             -12.804094               2.000000
 MO|     28              -0.457869             -12.459243               2.000000
 MO|     29              -0.412263             -11.218234               2.000000
 MO|     30              -0.407765             -11.095847               2.000000
 MO|     31              -0.406992             -11.074825               2.000000
 MO|     32              -0.406559             -11.063044               2.000000
 MO|     33              -0.399012             -10.857669               2.000000
 MO|     34              -0.371530             -10.109842               2.000000
 MO|     35              -0.369127             -10.044469               2.000000
 MO|     36              -0.366483              -9.972503               2.000000
 MO|     37              -0.350501              -9.537612               2.000000
 MO|     38              -0.348532              -9.484041               2.000000
 MO|     39              -0.324662              -8.834514               2.000000
 MO|     40              -0.315154              -8.575786               2.000000
 MO|     41              -0.306453              -8.339017               2.000000
 MO|     42              -0.295355              -8.037018               2.000000
 MO|     43              -0.286947              -7.808227               2.000000
 MO|     44              -0.274625              -7.472928               2.000000
 MO|     45              -0.224082              -6.097573               2.000000
 MO|     46              -0.221428              -6.025370               2.000000
 MO|     47              -0.205277              -5.585869               2.000000
 MO|     48              -0.187568              -5.103972               2.000000
 MO|     49              -0.051119              -1.391027               0.000000
 MO|     50              -0.027705              -0.753886               0.000000
 MO|     51              -0.025602              -0.696661               0.000000
 MO|     52              -0.015049              -0.409505               0.000000
 MO|     53              -0.001857              -0.050524               0.000000
 MO|     54               0.000361               0.009819               0.000000
 MO|     55               0.008274               0.225140               0.000000
 MO|     56               0.018857               0.513131               0.000000
 MO|     57               0.029111               0.792149               0.000000
 MO|     58               0.041162               1.120065               0.000000
 MO|     59               0.043703               1.189228               0.000000
 MO|     60               0.045532               1.238982               0.000000
 MO|     61               0.045618               1.241320               0.000000
 MO|     62               0.052750               1.435398               0.000000
 MO|     63               0.070122               1.908125               0.000000
 MO|     64               0.073008               1.986655               0.000000
 MO|     65               0.073577               2.002126               0.000000
 MO|     66               0.088708               2.413869               0.000000
 MO|     67               0.091833               2.498891               0.000000
 MO|     68               0.098328               2.675633               0.000000
 MO|     69               0.101520               2.762497               0.000000
 MO|     70               0.111691               3.039280               0.000000
 MO|     71               0.115935               3.154752               0.000000
 MO|     72               0.116282               3.164200               0.000000
 MO|     73               0.121101               3.295315               0.000000
 MO|     74               0.140381               3.819958               0.000000
 MO|     75               0.140737               3.829657               0.000000
 MO|     76               0.142833               3.886692               0.000000
 MO|     77               0.143425               3.902789               0.000000
 MO|     78               0.151997               4.136046               0.000000
 MO|     79               0.159259               4.333645               0.000000
 MO|     80               0.174288               4.742626               0.000000
 MO|     81               0.180043               4.899228               0.000000
 MO|     82               0.185102               5.036884               0.000000
 MO|     83               0.190529               5.184562               0.000000
 MO|     84               0.190668               5.188327               0.000000
 MO|     85               0.199434               5.426873               0.000000
 MO|     86               0.211543               5.756387               0.000000
 MO|     87               0.217570               5.920384               0.000000
 MO|     88               0.220456               5.998909               0.000000
 MO|     89               0.221743               6.033923               0.000000
 MO|     90               0.230774               6.279670               0.000000
 MO|     91               0.236851               6.445033               0.000000
 MO|     92               0.244234               6.645955               0.000000
 MO|     93               0.244691               6.658392               0.000000
 MO|     94               0.246583               6.709857               0.000000
 MO|     95               0.259638               7.065104               0.000000
 MO|     96               0.264220               7.189795               0.000000
 MO|     97               0.273876               7.452546               0.000000
 MO|     98               0.279295               7.600000               0.000000
 MO|     99               0.281558               7.661570               0.000000
 MO|    100               0.299969               8.162577               0.000000
 MO|    101               0.302318               8.226500               0.000000
 MO|    102               0.303456               8.257446               0.000000
 MO|    103               0.306439               8.338619               0.000000
 MO|    104               0.317183               8.630996               0.000000
 MO|    105               0.328613               8.942012               0.000000
 MO|    106               0.329810               8.974575               0.000000
 MO|    107               0.339755               9.245211               0.000000
 MO|    108               0.345181               9.392857               0.000000
 MO|    109               0.349993               9.523805               0.000000
 MO|    110               0.354394               9.643560               0.000000
 MO|    111               0.368333              10.022843               0.000000
 MO|    112               0.377403              10.269658               0.000000
 MO|    113               0.390065              10.614215               0.000000
 MO|    114               0.417410              11.358313               0.000000
 MO|    115               0.434789              11.831197               0.000000
 MO|    116               0.449973              12.244379               0.000000
 MO|    117               0.450082              12.247341               0.000000
 MO|    118               0.476039              12.953685               0.000000
 MO|    119               0.488175              13.283927               0.000000
 MO|    120               0.505066              13.743539               0.000000
 MO|    121               0.523362              14.241402               0.000000
 MO|    122               0.555178              15.107164               0.000000
 MO|    123               0.561492              15.278977               0.000000
 MO|    124               0.588932              16.025657               0.000000
 MO|    125               0.597305              16.253487               0.000000
 MO|    126               0.603587              16.424437               0.000000
 MO|    127               0.606325              16.498932               0.000000
 MO|    128               0.616722              16.781853               0.000000
 MO|    129               0.621313              16.906779               0.000000
 MO|    130               0.629057              17.117513               0.000000
 MO|    131               0.648361              17.642806               0.000000
 MO|    132               0.662784              18.035269               0.000000
 MO|    133               0.723828              19.696360               0.000000
 MO|    134               0.724228              19.707258               0.000000
 MO|    135               0.733379              19.956260               0.000000
 MO|    136               0.735658              20.018263               0.000000
 MO|    137               0.745999              20.299667               0.000000
 MO|    138               0.747710              20.346222               0.000000
 MO|    139               0.762864              20.758579               0.000000
 MO|    140               0.772676              21.025591               0.000000
 MO|    141               0.783084              21.308806               0.000000
 MO|    142               0.789220              21.475757               0.000000
 MO|    143               0.793500              21.592225               0.000000
 MO|    144               0.797985              21.714274               0.000000
 MO|    145               0.801686              21.814989               0.000000
 MO|    146               0.812424              22.107171               0.000000
 MO|    147               0.814320              22.158763               0.000000
 MO|    148               0.825555              22.464507               0.000000
 MO| Sum:                                                              96.000000
 MO| E(Fermi):           -0.061656 a.u.         -1.677735 eV
 MO| Band gap:            0.136448 a.u.          3.712945 eV

    38 Broy./Diag. 0.40E+00    0.2     0.00000076      -533.8404545508  1.02E-05

  *** SCF run converged in    38 steps ***


  Electronic density on regular grids:        -73.5636632157       22.4363367843
  Core density on regular grids:               12.0000000000      -84.0000000000
  Hard and soft densities (Lebedev):         -183.0390733674     -160.6027347234
  Total Rho_soft + Rho1_hard - Rho1_soft      -96.0000018596
  Total charge density (r-space):             -84.0000018596
  Total Rho_soft + Rho0_soft (g-space):        -0.0000020732

  Overlap energy of the core charge distribution:               0.00002790955712
  Self energy of the core charge distribution:               -424.50414017314966
  Core Hamiltonian energy:                                    -91.47687339608876
  Hartree energy:                                             178.78473182522043
  Exchange-correlation energy:                                -33.16546641273439

  GAPW| Exc from hard and soft atomic rho1:                   -46.17870290242193
  GAPW| local Eh = 1 center integrals:                       -117.30003140119629
  Electronic entropic energy:                                  -0.00000000000000
  Fermi energy:                                                -0.06165563123809

  Total energy:                                              -533.84045455081355

 MO| EIGENVALUES AND OCCUPATION NUMBERS
 MO|
 MO|  Index      Eigenvalue [a.u.]        Eigenvalue [eV]             Occupation
 MO|      1              -9.792094            -266.456426               2.000000
 MO|      2              -9.792063            -266.455584               2.000000
 MO|      3              -9.791915            -266.451564               2.000000
 MO|      4              -9.791889            -266.450843               2.000000
 MO|      5              -9.785988            -266.290270               2.000000
 MO|      6              -9.785985            -266.290183               2.000000
 MO|      7              -9.785903            -266.287971               2.000000
 MO|      8              -9.785887            -266.287516               2.000000
 MO|      9              -9.781875            -266.178353               2.000000
 MO|     10              -9.781871            -266.178252               2.000000
 MO|     11              -9.781530            -266.168980               2.000000
 MO|     12              -9.781527            -266.168877               2.000000
 MO|     13              -9.781086            -266.156882               2.000000
 MO|     14              -9.780972            -266.153779               2.000000
 MO|     15              -0.816298             -22.212598               2.000000
 MO|     16              -0.779053             -21.199099               2.000000
 MO|     17              -0.736554             -20.042643               2.000000
 MO|     18              -0.734918             -19.998135               2.000000
 MO|     19              -0.680129             -18.507243               2.000000
 MO|     20              -0.675159             -18.372022               2.000000
 MO|     21              -0.638897             -17.385281               2.000000
 MO|     22              -0.598496             -16.285899               2.000000
 MO|     23              -0.565579             -15.390181               2.000000
 MO|     24              -0.550540             -14.980947               2.000000
 MO|     25              -0.534917             -14.555839               2.000000
 MO|     26              -0.483792             -13.164638               2.000000
 MO|     27              -0.470542             -12.804094               2.000000
 MO|     28              -0.457869             -12.459243               2.000000
 MO|     29              -0.412263             -11.218234               2.000000
 MO|     30              -0.407765             -11.095847               2.000000
 MO|     31              -0.406992             -11.074825               2.000000
 MO|     32              -0.406559             -11.063044               2.000000
 MO|     33              -0.399012             -10.857669               2.000000
 MO|     34              -0.371530             -10.109842               2.000000
 MO|     35              -0.369127             -10.044469               2.000000
 MO|     36              -0.366483              -9.972503               2.000000
 MO|     37              -0.350501              -9.537612               2.000000
 MO|     38              -0.348532              -9.484041               2.000000
 MO|     39              -0.324662              -8.834514               2.000000
 MO|     40              -0.315154              -8.575786               2.000000
 MO|     41              -0.306453              -8.339017               2.000000
 MO|     42              -0.295355              -8.037018               2.000000
 MO|     43              -0.286947              -7.808227               2.000000
 MO|     44              -0.274625              -7.472928               2.000000
 MO|     45              -0.224082              -6.097573               2.000000
 MO|     46              -0.221428              -6.025370               2.000000
 MO|     47              -0.205277              -5.585869               2.000000
 MO|     48              -0.187568              -5.103972               2.000000
 MO|     49              -0.051119              -1.391027               0.000000
 MO|     50              -0.027705              -0.753886               0.000000
 MO|     51              -0.025602              -0.696661               0.000000
 MO|     52              -0.015049              -0.409505               0.000000
 MO|     53              -0.001857              -0.050524               0.000000
 MO|     54               0.000361               0.009819               0.000000
 MO|     55               0.008274               0.225140               0.000000
 MO|     56               0.018857               0.513131               0.000000
 MO|     57               0.029111               0.792149               0.000000
 MO|     58               0.041162               1.120065               0.000000
 MO|     59               0.043703               1.189228               0.000000
 MO|     60               0.045532               1.238982               0.000000
 MO|     61               0.045618               1.241320               0.000000
 MO|     62               0.052750               1.435398               0.000000
 MO|     63               0.070122               1.908125               0.000000
 MO|     64               0.073008               1.986655               0.000000
 MO|     65               0.073577               2.002126               0.000000
 MO|     66               0.088708               2.413869               0.000000
 MO|     67               0.091833               2.498891               0.000000
 MO|     68               0.098328               2.675633               0.000000
 MO|     69               0.101520               2.762497               0.000000
 MO|     70               0.111691               3.039280               0.000000
 MO|     71               0.115935               3.154752               0.000000
 MO|     72               0.116282               3.164200               0.000000
 MO|     73               0.121101               3.295315               0.000000
 MO|     74               0.140381               3.819958               0.000000
 MO|     75               0.140737               3.829657               0.000000
 MO|     76               0.142833               3.886692               0.000000
 MO|     77               0.143425               3.902789               0.000000
 MO|     78               0.151997               4.136046               0.000000
 MO|     79               0.159259               4.333645               0.000000
 MO|     80               0.174288               4.742626               0.000000
 MO|     81               0.180043               4.899228               0.000000
 MO|     82               0.185102               5.036884               0.000000
 MO|     83               0.190529               5.184562               0.000000
 MO|     84               0.190668               5.188327               0.000000
 MO|     85               0.199434               5.426873               0.000000
 MO|     86               0.211543               5.756387               0.000000
 MO|     87               0.217570               5.920384               0.000000
 MO|     88               0.220456               5.998909               0.000000
 MO|     89               0.221743               6.033923               0.000000
 MO|     90               0.230774               6.279670               0.000000
 MO|     91               0.236851               6.445033               0.000000
 MO|     92               0.244234               6.645955               0.000000
 MO|     93               0.244691               6.658392               0.000000
 MO|     94               0.246583               6.709857               0.000000
 MO|     95               0.259638               7.065104               0.000000
 MO|     96               0.264220               7.189795               0.000000
 MO|     97               0.273876               7.452546               0.000000
 MO|     98               0.279295               7.600000               0.000000
 MO|     99               0.281558               7.661570               0.000000
 MO|    100               0.299969               8.162577               0.000000
 MO|    101               0.302318               8.226500               0.000000
 MO|    102               0.303456               8.257446               0.000000
 MO|    103               0.306439               8.338619               0.000000
 MO|    104               0.317183               8.630996               0.000000
 MO|    105               0.328613               8.942012               0.000000
 MO|    106               0.329810               8.974575               0.000000
 MO|    107               0.339755               9.245211               0.000000
 MO|    108               0.345181               9.392857               0.000000
 MO|    109               0.349993               9.523805               0.000000
 MO|    110               0.354394               9.643560               0.000000
 MO|    111               0.368333              10.022843               0.000000
 MO|    112               0.377403              10.269658               0.000000
 MO|    113               0.390065              10.614215               0.000000
 MO|    114               0.417410              11.358313               0.000000
 MO|    115               0.434789              11.831197               0.000000
 MO|    116               0.449973              12.244379               0.000000
 MO|    117               0.450082              12.247341               0.000000
 MO|    118               0.476039              12.953685               0.000000
 MO|    119               0.488175              13.283927               0.000000
 MO|    120               0.505066              13.743539               0.000000
 MO|    121               0.523362              14.241402               0.000000
 MO|    122               0.555178              15.107164               0.000000
 MO|    123               0.561492              15.278977               0.000000
 MO|    124               0.588932              16.025657               0.000000
 MO|    125               0.597305              16.253487               0.000000
 MO|    126               0.603587              16.424437               0.000000
 MO|    127               0.606325              16.498932               0.000000
 MO|    128               0.616722              16.781853               0.000000
 MO|    129               0.621313              16.906779               0.000000
 MO|    130               0.629057              17.117513               0.000000
 MO|    131               0.648361              17.642806               0.000000
 MO|    132               0.662784              18.035269               0.000000
 MO|    133               0.723828              19.696360               0.000000
 MO|    134               0.724228              19.707258               0.000000
 MO|    135               0.733379              19.956260               0.000000
 MO|    136               0.735658              20.018263               0.000000
 MO|    137               0.745999              20.299667               0.000000
 MO|    138               0.747710              20.346222               0.000000
 MO|    139               0.762864              20.758579               0.000000
 MO|    140               0.772676              21.025591               0.000000
 MO|    141               0.783084              21.308806               0.000000
 MO|    142               0.789220              21.475757               0.000000
 MO|    143               0.793500              21.592225               0.000000
 MO|    144               0.797985              21.714274               0.000000
 MO|    145               0.801686              21.814989               0.000000
 MO|    146               0.812424              22.107171               0.000000
 MO|    147               0.814320              22.158763               0.000000
 MO|    148               0.825555              22.464507               0.000000
 MO| Sum:                                                              96.000000
 MO| E(Fermi):           -0.061656 a.u.         -1.677735 eV
 MO| Band gap:            0.136448 a.u.          3.712945 eV


 !-----------------------------------------------------------------------------!
                     Mulliken Population Analysis

 #  Atom  Element  Kind  Atomic population                           Net charge
       1     H        1          0.959091                              0.040909
       2     H        1          0.959091                              0.040909
       3     H        1          0.903078                              0.096922
       4     H        1          0.903078                              0.096922
       5     C        2          6.508444                             -0.508444
       6     C        2          6.090764                             -0.090764
       7     C        2          6.090764                             -0.090764
       8     H        1          0.964759                              0.035241
       9     H        1          0.964759                              0.035241
      10     C        2          5.781516                              0.218484
      11     C        2          5.781516                              0.218484
      12     C        2          6.046570                             -0.046570
      13     C        2          6.046570                             -0.046570
      14     C        2          6.046570                             -0.046570
      15     C        2          6.046570                             -0.046570
      16     C        2          5.781516                              0.218484
      17     C        2          5.781516                              0.218484
      18     H        1          0.964759                              0.035241
      19     H        1          0.964759                              0.035241
      20     C        2          6.090764                             -0.090764
      21     C        2          6.090764                             -0.090764
      22     C        2          6.508444                             -0.508444
      23     H        1          0.903078                              0.096922
      24     H        1          0.903078                              0.096922
      25     H        1          0.959091                              0.040909
      26     H        1          0.959091                              0.040909
 # Total charge                             96.000000                  0.000000

 !-----------------------------------------------------------------------------!

 !-----------------------------------------------------------------------------!
                           Hirshfeld Charges

  #Atom  Element  Kind  Ref Charge     Population                    Net charge
      1       H      1       1.000          0.510                         0.490
      2       H      1       1.000          0.510                         0.490
      3       H      1       1.000          0.518                         0.482
      4       H      1       1.000          0.518                         0.482
      5       C      2       6.000          6.871                        -0.871
      6       C      2       6.000          6.506                        -0.506
      7       C      2       6.000          6.506                        -0.506
      8       H      1       1.000          0.512                         0.488
      9       H      1       1.000          0.512                         0.488
     10       C      2       6.000          6.012                        -0.012
     11       C      2       6.000          6.012                        -0.012
     12       C      2       6.000          6.493                        -0.493
     13       C      2       6.000          6.493                        -0.493
     14       C      2       6.000          6.493                        -0.493
     15       C      2       6.000          6.493                        -0.493
     16       C      2       6.000          6.012                        -0.012
     17       C      2       6.000          6.012                        -0.012
     18       H      1       1.000          0.512                         0.488
     19       H      1       1.000          0.512                         0.488
     20       C      2       6.000          6.506                        -0.506
     21       C      2       6.000          6.506                        -0.506
     22       C      2       6.000          6.871                        -0.871
     23       H      1       1.000          0.518                         0.482
     24       H      1       1.000          0.518                         0.482
     25       H      1       1.000          0.510                         0.490
     26       H      1       1.000          0.510                         0.490

  Total Charge                                                            0.058
 !-----------------------------------------------------------------------------!
  
 -------------------------------------------------------------------------------
 -                                                                             -
 -                          BANDSTRUCTURE CALCULATION                          -
 -                                                                             -
 -------------------------------------------------------------------------------
  
 Number of occupied molecular orbitals (MOs) = Number of occupied bands       48
 Number of unoccupied (= virtual) MOs = Number of unoccupied bands           150
 Number of Gaussian basis functions for MOs                                  198
 K-point mesh for the density of states (DOS) and the self-energy      1   1   1
  
 -------------------------------------------------------------------------------
 -                                                                             -
 -                                GW CALCULATION                               -
 -                                                                             -
 -------------------------------------------------------------------------------
  
 Input: Number of time/freq. points                                           15
 Input: ω_max for fitting Σ(iω) (eV)                                        10.0
 Input: Filter threshold for sparse tensor operations                    1.0E-08
 Input: Apply Hedin shift                                                      T
 Input: Available memory per MPI process                                  6.0 GB
  
 Number of auxiliary Gaussian basis functions for χ, ε, W                    178
 Cutoff radius for the truncated Coulomb operator in Σ^x:               2645.9 Å
 Cutoff radius for the truncated Coulomb operator in RI metric:            7.0 Å
 Regularization parameter of RI                                          0.0E+00
 Regularization parameter of minimax grids                               0.0E+00
 Lattice sum size for V(k):                                                    3
  
 K-point mesh 1 for χ, ε, W                                            1   1   1
 K-point mesh 2 for χ, ε, W (for k-point extrapolation of W)           1   1   1
 Approximate the k-point extrapolation                                         F
 Group size for tensor operations                                             48
  Decoupling Energy:                                              -0.0000080715
 
 Computed 3-center integrals (µν|P), execution time                        0.1 s
 Percentage of non-zero (µν|P)                                         100.000 %
 Max. distance between µ,ν in non-zero (µν|P)                              9.5 A
 Required memory if storing all 3-center integrals (µν|P)                   0 GB
 
 Number of i and j atoms in M_λνP(τ), N_νλQ(τ):                              288
 Number of inner loop atoms for µ in M_λνP = sum_µ (µν|P) G_µλ                26
 
 SCF direct band gap (eV)                                                   3.71
 Max. SCF eigval diff. (eV)                                               335.66
 E-Range for minimax grid                                                  90.40
 Number of Padé parameters for analytic continuation:                          5
 
 Computed χ(iτ,k=0) for time point            1 / 15, Execution time       0.0 s
 Computed χ(iτ,k=0) for time point            2 / 15, Execution time       0.0 s
 Computed χ(iτ,k=0) for time point            3 / 15, Execution time       0.0 s
 Computed χ(iτ,k=0) for time point            4 / 15, Execution time       0.0 s
 Computed χ(iτ,k=0) for time point            5 / 15, Execution time       0.0 s
 Computed χ(iτ,k=0) for time point            6 / 15, Execution time       0.0 s
 Computed χ(iτ,k=0) for time point            7 / 15, Execution time       0.0 s
 Computed χ(iτ,k=0) for time point            8 / 15, Execution time       0.0 s
 Computed χ(iτ,k=0) for time point            9 / 15, Execution time       0.0 s
 Computed χ(iτ,k=0) for time point           10 / 15, Execution time       0.0 s
 Computed χ(iτ,k=0) for time point           11 / 15, Execution time       0.0 s
 Computed χ(iτ,k=0) for time point           12 / 15, Execution time       0.0 s
 Computed χ(iτ,k=0) for time point           13 / 15, Execution time       0.0 s
 Computed χ(iτ,k=0) for time point           14 / 15, Execution time       0.0 s
 Computed χ(iτ,k=0) for time point           15 / 15, Execution time       0.0 s
 
 Computed W(iτ,k) for k-point batch           1 /  1, Execution time       0.3 s
 
 Computed Σ^x(k=0),                                   Execution time       0.0 s
 
 Computed Σ^c(iτ,k=0) for time point          1 / 15, Execution time       0.1 s
 Computed Σ^c(iτ,k=0) for time point          2 / 15, Execution time       0.1 s
 Computed Σ^c(iτ,k=0) for time point          3 / 15, Execution time       0.1 s
 Computed Σ^c(iτ,k=0) for time point          4 / 15, Execution time       0.1 s
 Computed Σ^c(iτ,k=0) for time point          5 / 15, Execution time       0.1 s
 Computed Σ^c(iτ,k=0) for time point          6 / 15, Execution time       0.1 s
 Computed Σ^c(iτ,k=0) for time point          7 / 15, Execution time       0.1 s
 Computed Σ^c(iτ,k=0) for time point          8 / 15, Execution time       0.1 s
 Computed Σ^c(iτ,k=0) for time point          9 / 15, Execution time       0.1 s
 Computed Σ^c(iτ,k=0) for time point         10 / 15, Execution time       0.1 s
 Computed Σ^c(iτ,k=0) for time point         11 / 15, Execution time       0.1 s
 Computed Σ^c(iτ,k=0) for time point         12 / 15, Execution time       0.1 s
 Computed Σ^c(iτ,k=0) for time point         13 / 15, Execution time       0.1 s
 Computed Σ^c(iτ,k=0) for time point         14 / 15, Execution time       0.1 s
 Computed Σ^c(iτ,k=0) for time point         15 / 15, Execution time       0.1 s
 
 Sparsity of Σ^c(iτ,k=0): Percentage of skipped atom pairs:                0.0 %
 Sparsity of χ(iτ,k=0): Percentage of skipped atom pairs:                  0.0 %

 
 SCF valence band maximum (eV):                                           -5.104
 SCF conduction band minimum (eV):                                        -1.391
 SCF indirect band gap (eV):                                               3.713
 SCF direct band gap (eV):                                                 3.713
 
 G0W0 valence band maximum (eV):                                          -5.534
 G0W0 conduction band minimum (eV):                                        2.275
 G0W0 indirect band gap (eV):                                              7.810
 G0W0 direct band gap (eV):                                                7.810
 
 Hartree-Fock with SCF orbitals valence band maximum (eV):                -6.294
 Hartree-Fock with SCF orbitals conduction band minimum (eV)               3.159
 Hartree-Fock with SCF orbitals indirect band gap (eV):                    9.454
 Hartree-Fock with SCF orbitals direct band gap (eV):                      9.454

 ENERGY| Total FORCE_EVAL ( QS ) energy [hartree]           -533.840454550813547

 -------------------------------------------------------------------------------
 -                                                                             -
 -                                DBCSR STATISTICS                             -
 -                                                                             -
 -------------------------------------------------------------------------------
 COUNTER                                    TOTAL       BLAS       SMM       ACC
 flops     6 x     6 x    20              4268160     100.0%      0.0%      0.0%     
 flops     9 x     6 x    20              6894720     100.0%      0.0%      0.0%     
 flops     6 x     9 x    20              6894720     100.0%      0.0%      0.0%     
 flops     9 x     9 x    20             12927600     100.0%      0.0%      0.0%     
 flops     6 x     6 x    32             27316224     100.0%      0.0%      0.0%     
 flops     9 x     6 x    32             44126208     100.0%      0.0%      0.0%     
 flops     6 x     9 x    32             44126208     100.0%      0.0%      0.0%     
 flops     9 x     9 x    32             82736640     100.0%      0.0%      0.0%     
 flops inhomo. stacks                           0       0.0%      0.0%      0.0%
 flops total                       229.290480E+06     100.0%      0.0%      0.0%
 flops max/rank                      7.997328E+06     100.0%      0.0%      0.0%
 matmuls inhomo. stacks                         0       0.0%      0.0%      0.0%
 matmuls total                              66690     100.0%      0.0%      0.0%
 number of processed stacks                 57950     100.0%      0.0%      0.0%
 average stack size                                     1.2       0.0       0.0
 marketing flops                   143.016192E+06
 -------------------------------------------------------------------------------
 # multiplications                             38
 max memory usage/rank              18.528772E+09
 # max total images/rank                        3
 # max 3D layers                                1
 # MPI messages exchanged                   36480
 MPI messages size (bytes):
  total size                       124.717824E+06
  min size                           0.000000E+00
  max size                          13.824000E+03
  average size                       3.418800E+03
 MPI breakdown and total messages size (bytes):
             size <=      128               21280                        0
       128 < size <=     8192                8094                 36355968
      8192 < size <=    32768                7106                 88361856
     32768 < size <=   131072                   0                        0
    131072 < size <=  4194304                   0                        0
   4194304 < size <= 16777216                   0                        0
  16777216 < size                               0                        0
 -------------------------------------------------------------------------------

 *** WARNING in dbcsr_mm.F:301 :: Using a non-square number of MPI ranks ***
 *** might lead to poor performance. Used ranks: 48 Suggested: 49 100    ***

 -------------------------------------------------------------------------------
 -                                                                             -
 -                      DBCSR MESSAGE PASSING PERFORMANCE                      -
 -                                                                             -
 -------------------------------------------------------------------------------
 ROUTINE             CALLS      AVE VOLUME [Bytes]
 MP_Bcast                9                     12.
 MP_Allreduce          225                     11.
 MP_Alltoall          2881                   8322.
 MP_ISend             1824                   1713.
 MP_IRecv             1824                   1230.
 -------------------------------------------------------------------------------

 -------------------------------------------------------------------------------
 -                                                                             -
 -                                DBM STATISTICS                               -
 -                                                                             -
 -------------------------------------------------------------------------------
    M  x    N  x    K                                          COUNT     PERCENT
    ?  x    ?  x    ?                                         708966      50.03%
   ??  x    ?  x    ?                                         304512      21.49%
    ?  x    ?  x   ??                                         179216      12.65%
   ??  x   ??  x   ??                                          72912       5.14%
    ?  x   ??  x   ??                                          62418       4.40%
   ??  x   ??  x    ?                                          32152       2.27%
   ??  x    ?  x   ??                                          30240       2.13%
    ?  x   ??  x    ?                                          26751       1.89%
 -------------------------------------------------------------------------------

 -------------------------------------------------------------------------------
 -                                                                             -
 -                                GRID STATISTICS                              -
 -                                                                             -
 -------------------------------------------------------------------------------
 LP    KERNEL             BACKEND                              COUNT     PERCENT
 2     collocate ortho    CPU                                   8073      46.66%
 2     integrate ortho    CPU                                   8073      46.66%
 2     collocate general  CPU                                    546       3.16%
 2     integrate general  CPU                                    546       3.16%
 0     collocate general  CPU                                     38       0.22%
 0     integrate general  CPU                                     26       0.15%
 -------------------------------------------------------------------------------

 -------------------------------------------------------------------------------
 -                                                                             -
 -                          OFFLOAD MEMPOOL STATISTICS                         -
 -                                                                             -
 -------------------------------------------------------------------------------
 Memory consumption                Number of allocations  Used [MiB]  Size [MiB]
 Device                                                7          40          40
 Host                                                210          40          71
 -------------------------------------------------------------------------------

 MEMORY| Estimated peak process memory [MiB]                                 696

 -------------------------------------------------------------------------------
 ----                             MULTIGRID INFO                            ----
 -------------------------------------------------------------------------------
 count for grid        1:         104056          cutoff [a.u.]          300.00
 count for grid        2:          39391          cutoff [a.u.]          100.00
 count for grid        3:          62125          cutoff [a.u.]           33.33
 count for grid        4:          44139          cutoff [a.u.]           11.11
 total gridlevel count  :         249711

 -------------------------------------------------------------------------------
 -                                                                             -
 -                         MESSAGE PASSING PERFORMANCE                         -
 -                                                                             -
 -------------------------------------------------------------------------------

 ROUTINE             CALLS      AVE VOLUME [Bytes]
 MP_Group             1400
 MP_Bcast             4030                  15214.
 MP_Allreduce        13512                    735.
 MP_Sync              1794
 MP_Alltoall          1718                6608473.
 MP_SendRecv          3666                  86560.
 MP_ISendRecv         3666                  86560.
 MP_Wait              8898
 MP_comm_split         823
 MP_ISend            16065                 185075.
 MP_IRecv            15951                 186470.
 -------------------------------------------------------------------------------


 -------------------------------------------------------------------------------
 -                                                                             -
 -                           R E F E R E N C E S                               -
 -                                                                             -
 -------------------------------------------------------------------------------
 
 CP2K version 2025.2 (Development Version), the CP2K developers group (2025).
 CP2K is freely available from https://www.cp2k.org/ .
 
 M. Graml, K. Zollner, D. Hernangómez-Pérez, P. E. Faria Junior, J. Wilhelm.
 J. Chem. Theory Comput. 20, 2202-2208 (2024).
 Low-scaling GW algorithm applied to twisted transition-metal dichalcogenide 
 heterobilayers.
 https://doi.org/10.1021/acs.jctc.3c01230

 T. D. Kuehne, M. Iannuzzi, M. Del Ben, V. V. Rybkin, P. Seewald, F. Stein, T. 
 Laino, R. Z. Khaliullin, O. Schuett, F. Schiffmann, D. Golze, J. Wilhelm, S. 
 Chulkov, M. H. Bani-Hashemian, V. Weber, U. Borstnik, M. Taillefumier, A. S. 
 Jakobovits, A. Lazzaro, H. Pabst, T. Mueller, R. Schade, M. Guidon, S. 
 Andermatt, N. Holmberg, G. K. Schenter, A. Hehn, A. Bussy, F. Belleflamme, G. 
 Tabacchi, A. Gloess, M. Lass, I. Bethune, C. J. Mundy, C. Plessl, M. Watkins, 
 J. VandeVondele, M. Krack, J. Hutter.
 J. Chem. Phys. 152, 194103 (2020).
 CP2K: An electronic structure and molecular dynamics software package - 
 Quickstep: Efficient and accurate electronic structure calculations.
 https://doi.org/10.1063/5.0007045

 O. Schuett, P. Messmer, J. Hutter, J. VandeVondele.
 Electronic Structure Calculations on Graphics Processing Units, 173-190 (2016).
 GPU-Accelerated Sparse Matrix-Matrix Multiplication for Linear Scaling Density 
 Functional Theory.
 https://doi.org/10.1002/9781118670712.ch8

 A. Heinecke, G. Henry, M. Hutchinson, H. Pabst.
 Proceedings of Intl. Supercomputing Conference, 981-991 (2016).
 LIBXSMM: Accelerating Small Matrix Multiplications by Runtime Code Generation.
 https://doi.org/10.1109/SC.2016.83

 J. Hutter, M. Iannuzzi, F. Schiffmann, J. VandeVondele.
 WIREs Comput Mol Sci. 4, 15-25 (2014).
 CP2K: atomistic simulations of condensed matter systems.
 https://doi.org/10.1002/wcms.1159

 U. Borstnik, J. VandeVondele, V. Weber, J. Hutter.
 Parallel Comput. 40, 47-58 (2014).
 Sparse matrix multiplication: The distributed block-compressed sparse row 
 library.
 https://doi.org/10.1016/j.parco.2014.03.012

 A. Marek, V. Blum, R. Johanni, V. Havu, B. Lang, T. Auckenthaler, A. Heinecke, 
 H. Bungartz, H. Lederer.
 J. Phys. Condens. Matter 26, 213201 (2014).
 The ELPA library: scalable parallel eigenvalue solutions for electronic 
 structure theory and computational science.
 https://doi.org/10.1088/0953-8984/26/21/213201

 J. VandeVondele, J. Hutter.
 J. Chem. Phys. 127, 114105 (2007).
 Gaussian basis sets for accurate calculations on molecular systems in gas and 
 condensed phases.
 https://doi.org/10.1063/1.2770708

 M. Frigo, S. G. Johnson.
 Proc. IEEE 93, 216-231 (2005).
 The design and implementation of FFTW3.
 https://doi.org/10.1109/JPROC.2004.840301

 M. Krack, M. Parrinello.
 Phys. Chem. Chem. Phys. 2, 2105-2112 (2000).
 All-electron ab-initio molecular dynamics.
 https://doi.org/10.1039/b001167n

 G. Lippert, J. Hutter, M. Parrinello.
 Theor. Chem. Acc. 103, 124-140 (1999).
 The Gaussian and augmented-plane-wave density functional method for ab initio 
 molecular dynamics simulations.
 https://doi.org/10.1007/s002140050523

 J. P. Perdew, K. Burke, M. Ernzerhof.
 Phys. Rev. Lett. 77, 3865-3868 (1996).
 Generalized gradient approximation made simple.
 https://doi.org/10.1103/PhysRevLett.77.3865

 P. E. Blöchl.
 J. Chem. Phys. 103, 7422-7428 (1995).
 Electrostatic decoupling of periodic images of plane‐wave‐expanded 
 densities and derived atomic point charges.
 https://doi.org/10.1063/1.470314


 -------------------------------------------------------------------------------
 -                                                                             -
 -                                T I M I N G                                  -
 -                                                                             -
 -------------------------------------------------------------------------------
 SUBROUTINE                       CALLS  ASD         SELF TIME        TOTAL TIME
                                MAXIMUM       AVERAGE  MAXIMUM  AVERAGE  MAXIMUM
 CP2K                                 1  1.0    0.005    0.016   11.987   11.988
 qs_energies                          1  2.0    0.000    0.000   11.908   11.912
 scf_env_do_scf                       1  3.0    0.000    0.000    9.359    9.359
 scf_env_do_scf_inner_loop           38  4.0    0.001    0.001    9.359    9.359
 qs_ks_build_kohn_sham_matrix        39  7.0    0.006    0.007    6.126    6.127
 qs_ks_update_qs_env                 38  5.0    0.000    0.000    6.054    6.055
 rebuild_ks_matrix                   38  6.0    0.000    0.000    6.052    6.053
 fft_wrap_pw1pw2                    733 10.1    0.008    0.010    3.644    3.770
 fft_wrap_pw1pw2_300                499 11.4    0.217    0.263    3.438    3.596
 fft3d_ps                           733 12.1    1.231    1.351    2.900    3.048
 qs_vxc_create                       39  8.0    0.001    0.001    2.755    2.804
 xc_vxc_pw_create                    38  9.0    0.036    0.043    2.755    2.803
 qs_rho_update_rho_low               39  5.0    0.000    0.001    2.265    2.266
 qs_energies_properties               1  3.0    0.000    0.000    2.246    2.249
 post_scf_bandstructure               1  4.0    0.000    0.000    2.246    2.249
 calculate_rho_elec                  39  6.0    0.025    0.027    2.233    2.234
 gw                                   1  5.0    0.000    0.000    2.219    2.220
 xc_pw_derive                       228 11.0    0.001    0.001    1.872    1.966
 gw_calc_large_cell_Gamma             1  6.0    0.000    0.000    1.964    1.965
 mp_alltoall_z22v                   733 14.1    1.469    1.603    1.469    1.603
 xc_rho_set_and_dset_create          38 10.0    0.037    0.041    1.446    1.520
 density_rs2pw                       39  7.0    0.001    0.002    1.287    1.407
 xc_pw_divergence                    38 10.0    0.001    0.001    1.220    1.295
 sum_up_and_integrate                39  8.0    0.000    0.000    1.252    1.258
 integrate_v_rspace                  39  9.0    0.001    0.001    1.241    1.247
 transfer_rs2pw                     197  8.4    0.002    0.003    1.065    1.206
 transfer_pw2rs                     196 10.6    0.001    0.001    1.099    1.148
 potential_pw2rs                     39 10.0    0.002    0.002    1.087    1.090
 mp_waitany                        2682 11.5    0.820    1.052    0.820    1.052
 x_to_yz                            384 13.3    0.099    0.133    0.974    1.047
 get_Sigma_c                          1  7.0    0.000    0.001    1.033    1.033
 grid_collocate_task_list            39  7.0    0.893    0.992    0.893    0.992
 transfer_rs2pw_300                  80  9.9    0.441    0.493    0.837    0.962
 dbt_total                          354  9.0    0.001    0.001    0.916    0.916
 prepare_gapw_den                    39  8.0    0.000    0.001    0.828    0.858
 transfer_pw2rs_300                  79 11.0    0.402    0.463    0.778    0.853
 put_rho0_on_grid                    39  9.0    0.029    0.036    0.813    0.843
 dbt_contract                       123  9.9    0.002    0.002    0.829    0.829
 yz_to_x                            349 12.9    0.087    0.108    0.681    0.814
 gspace_mixing                       37  5.0    0.023    0.026    0.813    0.813
 dbt_tas_multiply                   246 12.4    0.000    0.000    0.786    0.786
 dbt_tas_total                      246 13.4    0.008    0.011    0.785    0.785
 contract_to_Sigma                   31  8.0    0.000    0.000    0.634    0.634
 build_3c_integrals                  83  9.5    0.349    0.418    0.518    0.594
 get_mat_chi_Gamma_tau                1  7.0    0.000    0.001    0.540    0.541
 integrate_vhg0_rspace               39  8.0    0.007    0.012    0.513    0.535
 compute_3c_integrals                77  8.6    0.001    0.001    0.508    0.509
 broyden_mixing                      37  6.0    0.475    0.489    0.490    0.501
 xc_functional_eval                 114 10.6    0.000    0.001    0.408    0.463
 pbe_lda_eval                       114 11.6    0.408    0.462    0.408    0.462
 qs_ks_ddapc                         39  8.0    0.001    0.001    0.385    0.422
 mp_sum_d                          4037  6.6    0.257    0.404    0.257    0.404
 mp_sync                           1794 12.2    0.260    0.357    0.260    0.357
 dbt_tas_dbm                        246 14.4    0.000    0.000    0.306    0.307
 compute_3c_and_contract_W           16  8.1    0.000    0.000    0.303    0.303
 pw_derive                          345 11.3    0.260    0.302    0.260    0.302
 pw_copy                            697 10.5    0.275    0.300    0.275    0.300
 get_W_MIC                            1  7.0    0.000    0.000    0.281    0.281
 compute_W_MIC                        1  8.0    0.000    0.000    0.281    0.281
 qs_scf_new_mos                      38  5.0    0.000    0.000    0.272    0.274
 transfer_pw2rs_100                  39 12.0    0.070    0.076    0.207    0.265
 dbm_multiply                       246 16.4    0.233    0.261    0.233    0.261
 create_and_init_bs_env_for_gw        1  6.0    0.000    0.000    0.255    0.259
 mp_waitall_1                      7906 12.5    0.135    0.254    0.135    0.254
 pw_poisson_solve                    39  8.0    0.000    0.001    0.246    0.254
 compute_fm_W_MIC_freq_j             15  9.0    0.000    0.000    0.246    0.246
 dbt_tas_estimate_result_nze        123 12.9    0.011    0.013    0.244    0.244
 pw_gather_p                        349 11.9    0.200    0.235    0.200    0.235
 eigensolver_symm                    38  6.0    0.003    0.003    0.204    0.206
 rs_grid_zero                       198 11.2    0.189    0.200    0.189    0.200
 fft_wrap_pw1pw2_100                 78 10.5    0.010    0.013    0.137    0.193
 mp_sum_dm                         1676  7.7    0.113    0.182    0.113    0.182
 qs_energies_init_hamiltonians        1  3.0    0.000    0.000    0.180    0.180
 cp_cfm_heevd                        17 10.6    0.000    0.000    0.163    0.163
 cp_cfm_heevd_base                   17 11.6    0.163    0.163    0.163    0.163
 pw_scatter_p                       384 12.3    0.151    0.162    0.151    0.162
 cp_fm_diag_elpa                     44  7.2    0.000    0.000    0.158    0.160
 cp_cfm_power                        15 10.0    0.000    0.000    0.157    0.158
 cp_fm_diag_elpa_base                44  8.2    0.152    0.155    0.157    0.157
 pw_poisson_set                      40  8.9    0.001    0.001    0.148    0.155
 build_core_hamiltonian_matrix        1  4.0    0.000    0.000    0.153    0.153
 overlap_condnum                      1  5.0    0.000    0.000    0.152    0.152
 grid_integrate_task_list            39 10.0    0.042    0.152    0.042    0.152
 mp_alltoall_d11v                  1407 10.7    0.121    0.145    0.121    0.145
 arnoldi_conjugate_gradient           5  6.0    0.004    0.005    0.142    0.142
 transfer_rs2pw_100                  39  9.0    0.033    0.036    0.117    0.140
 check_sparsity_3c                    1  7.0    0.000    0.000    0.137    0.137
 rs_gather_matrices                  39 10.0    0.001    0.001    0.110    0.136
 G_times_3c                          30  8.0    0.000    0.000    0.135    0.135
 mp_bcast_dm                       1093  9.0    0.130    0.133    0.130    0.133
 parallel_gemm_cfm                  144 10.4    0.000    0.000    0.129    0.132
 parallel_gemm_cfm_cosma            144 11.4    0.129    0.132    0.129    0.132
 parallel_gemm_fm_cosma             170  8.3    0.126    0.130    0.126    0.130
 dbt_tas_mm_2                        92 15.2    0.000    0.000    0.126    0.126
 reshape_mm_small                   246 14.4    0.012    0.013    0.114    0.121
 pw_axpy                            424  9.2    0.098    0.118    0.098    0.118
 pw_integral_ab_c1d_c1d_gs           78  9.5    0.095    0.097    0.109    0.112
 pw_copy_to_array                   349 11.9    0.091    0.111    0.091    0.111
 cp_ddapc_apply_CD                   39  9.0    0.001    0.003    0.096    0.109
 transfer_pw2rs_40                   39 12.0    0.046    0.048    0.086    0.093
 transfer_rs2pw_40                   39  9.0    0.043    0.045    0.086    0.091
 dbcsr_sym_matrix_vector_mult      1950  7.0    0.009    0.010    0.088    0.090
 dbt_tas_distribution_new           656 14.4    0.045    0.046    0.088    0.089
 dbt_tas_create_split               821 15.2    0.001    0.001    0.088    0.089
 dbt_tas_create_split_rows_or_c     821 16.2    0.001    0.001    0.088    0.088
 init_scf_run                         1  3.0    0.000    0.000    0.082    0.082
 fm_to_local_tensor                  77  8.0    0.001    0.001    0.078    0.080
 compute_cfm_W_ikp_freq_j            15 10.0    0.000    0.000    0.079    0.080
 convert_to_new_pgrid               738 14.4    0.018    0.022    0.073    0.078
 dbt_tas_replicate                  246 14.4    0.014    0.019    0.066    0.076
 write_matrix                        46  8.0    0.000    0.000    0.059    0.076
 scf_env_initial_rho_setup            1  4.0    0.000    0.000    0.076    0.076
 mp_alltoall_i                      893 14.4    0.070    0.076    0.070    0.076
 compute_V_xc                         1  7.0    0.000    0.000    0.075    0.075
 dbm_redistribute                   186 14.7    0.067    0.075    0.067    0.075
 pw_copy_from_array                 384 12.3    0.065    0.074    0.065    0.074
 dbt_copy                           231 10.1    0.001    0.001    0.063    0.074
 pw_zero                            230 10.3    0.064    0.071    0.064    0.071
 fm_write                            61  9.0    0.002    0.029    0.042    0.070
 compute_QP_energies                  1  7.0    0.000    0.000    0.065    0.065
 copy_dbcsr_to_fm                   142  8.4    0.001    0.001    0.063    0.064
 dbt_reshape                        139 10.9    0.018    0.021    0.052    0.061
 dbt_tas_reshape                    246 15.0    0.001    0.001    0.053    0.060
 -------------------------------------------------------------------------------

 The number of warnings for this run is : 2
 
 -------------------------------------------------------------------------------
  **** **** ******  **  PROGRAM ENDED AT                 2026-01-23 12:30:04.618
 ***** ** ***  *** **   PROGRAM RAN ON                                   lcn1311
 **    ****   ******    PROGRAM RAN BY                                  eprop2d2
 ***** **    ** ** **   PROGRAM PROCESS ID                               1031545
  **** **  *******  **  PROGRAM STOPPED IN /scratch/hpc-prf-metdyn/eprop2d2_Max/
                                           02_lsGW_Nanographenes_Farming_runs/12
                                           _SZV-mini_with_new_bounds/00101_GW_na
                                           nographene_1_stripes__BASIS_SET ORB_a
                                           ug-SZV-MOLOPT-ae-mini_BASIS_SET RI_AU
                                           X_RI_aug-SZV-MOLOPT-ae-mini_tier1_EPS
                                           _FILTER_1e-8_NUM_TIME_FREQ_POINTS_15_
                                           POISSON_SOLVER_MULTIPOLE_BASIS_SET_FI
                                           LE_NAME_BASIS_augMOLOPT_SR_as_mini_AD
                                           DED_MOS_100
