 DBCSR| CPU Multiplication driver                                           BLAS (U)
 DBCSR| Multrec recursion limit                                              512 (U)
 DBCSR| Multiplication stack size                                           1000 (D)
 DBCSR| Maximum elements for images                                    UNLIMITED (U)
 DBCSR| Multiplicative factor virtual images                                   1 (U)
 DBCSR| Use multiplication densification                                       T (D)
 DBCSR| Multiplication size stacks                                             3 (U)
 DBCSR| Use memory pool for CPU allocation                                     F (U)
 DBCSR| Number of 3D layers                                               SINGLE (U)
 DBCSR| Use MPI memory allocation                                              F (U)
 DBCSR| Use RMA algorithm                                                      F (U)
 DBCSR| Use Communication thread                                               T (U)
 DBCSR| Communication thread load                                             75 (D)
 DBCSR| MPI: My process id                                                     0
 DBCSR| MPI: Number of processes                                              48
 DBCSR| OMP: Current number of threads                                         4
 DBCSR| OMP: Max number of threads                                             4
 DBCSR| Split modifier for TAS multiplication algorithm                  1.0E+00 (U)


  **** **** ******  **  PROGRAM STARTED AT               2026-02-16 17:09:50.840
 ***** ** ***  *** **   PROGRAM STARTED ON                                cn0925
 **    ****   ******    PROGRAM STARTED BY                              eprop2d2
 ***** **    ** ** **   PROGRAM PROCESS ID                                478385
  **** **  *******  **  PROGRAM STARTED IN /scratch/hpc-prf-metdyn/eprop2d2_Max/
                                           02_lsGW_Nanographenes_Farming_runs/16
                                           _SZV-mini_after_bugfix_dist/01002_GW_
                                           nanographene_2_stripes__BASIS_SET ORB
                                           _aug-SZV-MOLOPT-ae-mini_BASIS_SET RI_
                                           AUX_RI_aug-SZV-MOLOPT-ae-mini_tier1_E
                                           PS_FILTER_1e-8_NUM_TIME_FREQ_POINTS_1
                                           5_POISSON_SOLVER_MULTIPOLE_BASIS_SET_
                                           FILE_NAME_BASIS_augMOLOPT_SR_as_mini

 CP2K| version string:                 CP2K version 2026.1 (Development Version)
 CP2K| source code revision number:                                   5c517a4e77
 CP2K| cp2kflags: omp libint fftw3 libxc elpa parallel scalapack cosma xsmm     
 CP2K| is freely available from                            https://www.cp2k.org/
 CP2K| Program compiled at                                   2026-02-05 15:00:46
 CP2K| Program compiled on                                                login1
 CP2K| Program compiled for                                               x86_64
 CP2K| Data directory path    /opt/software/pc2/EB-SW/software/CP2K/2025.2-foss-
 CP2K| Input file name                                                    GW.inp

 GLOBAL| Force Environment number                                              1
 GLOBAL| Basis set file name                          BASIS_augMOLOPT_SR_as_mini
 GLOBAL| Potential file name                                      ALL_POTENTIALS
 GLOBAL| MM Potential file name                                     MM_POTENTIAL
 GLOBAL| Coordinate file name                                 Nanographene_2.xyz
 GLOBAL| Method name                                                        CP2K
 GLOBAL| Project name                                                    MOLNAME
 GLOBAL| Run type                                                         ENERGY
 GLOBAL| FFT library                                                       FFTW3
 GLOBAL| Diagonalization library                                            ELPA
 GLOBAL| Cholesky decomposition library                                ScaLAPACK
 GLOBAL| DGEMM library                                                      BLAS
 GLOBAL| Minimum number of eigenvectors for ELPA usage                        64
 GLOBAL| Orthonormality check for eigenvectors                          DISABLED
 GLOBAL| Matrix multiplication library                                     COSMA
 GLOBAL| All-to-all communication in single precision                          F
 GLOBAL| FFTs using library dependent lengths                                  T
 GLOBAL| Grid backend                                                       AUTO
 GLOBAL| Global print level                                               MEDIUM
 GLOBAL| MPI I/O enabled                                                       T
 GLOBAL| Total number of message passing processes                            48
 GLOBAL| Number of distributed systems (nodes)                                 1
 GLOBAL| Number of threads for this process                                    4
 GLOBAL| This output is from process                                           0
 GLOBAL| OpenMP stack size per thread (OMP_STACKSIZE)                    default
 GLOBAL| CPU model name                          AMD EPYC 9655 96-Core Processor
 GLOBAL| CPUID                                                              1003

 MEMORY| system memory details [Kb]
 MEMORY|                        rank 0           min           max       average
 MEMORY| MemTotal            791039012     791039012     791039012     791039012
 MEMORY| MemFree             745237496     745237496     745237496     745237496
 MEMORY| Buffers                  3196          3196          3196          3196
 MEMORY| Cached               14050120      14050120      14050120      14050120
 MEMORY| Slab                  2777876       2777876       2777876       2777876
 MEMORY| SReclaimable          1019708       1019708       1019708       1019708
 MEMORY| MemLikelyFree       760310520     760310520     760310520     760310520


 *** Fundamental physical constants (SI units) ***

 *** Literature: B. J. Mohr and B. N. Taylor,
 ***             CODATA recommended values of the fundamental physical
 ***             constants: 2006, Web Version 5.1
 ***             http://physics.nist.gov/constants

 Speed of light in vacuum [m/s]                             2.99792458000000E+08
 Magnetic constant or permeability of vacuum [N/A**2]       1.25663706143592E-06
 Electric constant or permittivity of vacuum [F/m]          8.85418781762039E-12
 Planck constant (h) [J*s]                                  6.62606896000000E-34
 Planck constant (h-bar) [J*s]                              1.05457162825177E-34
 Elementary charge [C]                                      1.60217648700000E-19
 Electron mass [kg]                                         9.10938215000000E-31
 Electron g factor [ ]                                     -2.00231930436220E+00
 Proton mass [kg]                                           1.67262163700000E-27
 Fine-structure constant                                    7.29735253760000E-03
 Rydberg constant [1/m]                                     1.09737315685270E+07
 Avogadro constant [1/mol]                                  6.02214179000000E+23
 Boltzmann constant [J/K]                                   1.38065040000000E-23
 Atomic mass unit [kg]                                      1.66053878200000E-27
 Bohr radius [m]                                            5.29177208590000E-11

 *** Conversion factors ***

 [u] -> [a.u.]                                              1.82288848426455E+03
 [Angstrom] -> [Bohr] = [a.u.]                              1.88972613288564E+00
 [a.u.] = [Bohr] -> [Angstrom]                              5.29177208590000E-01
 [a.u.] -> [s]                                              2.41888432650478E-17
 [a.u.] -> [fs]                                             2.41888432650478E-02
 [a.u.] -> [J]                                              4.35974393937059E-18
 [a.u.] -> [N]                                              8.23872205491840E-08
 [a.u.] -> [K]                                              3.15774647902944E+05
 [a.u.] -> [kJ/mol]                                         2.62549961709828E+03
 [a.u.] -> [kcal/mol]                                       6.27509468713739E+02
 [a.u.] -> [Pa]                                             2.94210107994716E+13
 [a.u.] -> [bar]                                            2.94210107994716E+08
 [a.u.] -> [atm]                                            2.90362800883016E+08
 [a.u.] -> [eV]                                             2.72113838565563E+01
 [a.u.] -> [Hz]                                             6.57968392072181E+15
 [a.u.] -> [1/cm] (wave numbers)                            2.19474631370540E+05
 [a.u./Bohr**2] -> [1/cm]                                   5.14048714338585E+03
 

 CELL_TOP| Volume [angstrom^3]:                                      6110.009360
 CELL_TOP| Vector a [angstrom    21.190     0.000     0.000   |a| =    21.190000
 CELL_TOP| Vector b [angstrom     0.000    21.280     0.000   |b| =    21.280000
 CELL_TOP| Vector c [angstrom     0.000     0.000    13.550   |c| =    13.550000
 CELL_TOP| Angle (b,c), alpha [degree]:                                90.000000
 CELL_TOP| Angle (a,c), beta  [degree]:                                90.000000
 CELL_TOP| Angle (a,b), gamma [degree]:                                90.000000
 CELL_TOP| Numerically orthorhombic:                                         YES
 CELL_TOP| Periodicity                                                      NONE

 GENERATE|  Preliminary Number of Bonds generated:                             0
 GENERATE|  Achieved consistency in connectivity generation.

 CELL| Volume [angstrom^3]:                                          6110.009360
 CELL| Vector a [angstrom]:      21.190     0.000     0.000   |a| =    21.190000
 CELL| Vector b [angstrom]:       0.000    21.280     0.000   |b| =    21.280000
 CELL| Vector c [angstrom]:       0.000     0.000    13.550   |c| =    13.550000
 CELL| Angle (b,c), alpha [degree]:                                    90.000000
 CELL| Angle (a,c), beta  [degree]:                                    90.000000
 CELL| Angle (a,b), gamma [degree]:                                    90.000000
 CELL| Numerically orthorhombic:                                             YES
 CELL| Periodicity                                                          NONE

 CELL_REF| Volume [angstrom^3]:                                      6110.009360
 CELL_REF| Vector a [angstrom    21.190     0.000     0.000   |a| =    21.190000
 CELL_REF| Vector b [angstrom     0.000    21.280     0.000   |b| =    21.280000
 CELL_REF| Vector c [angstrom     0.000     0.000    13.550   |c| =    13.550000
 CELL_REF| Angle (b,c), alpha [degree]:                                90.000000
 CELL_REF| Angle (a,c), beta  [degree]:                                90.000000
 CELL_REF| Angle (a,b), gamma [degree]:                                90.000000
 CELL_REF| Numerically orthorhombic:                                         YES
 CELL_REF| Periodicity                                                      NONE

 *******************************************************************************
 *******************************************************************************
 **                                                                           **
 **     #####                         ##              ##                      **
 **    ##   ##            ##          ##              ##                      **
 **   ##     ##                       ##            ######                    **
 **   ##     ##  ##   ##  ##   #####  ##  ##   ####   ##    #####    #####    **
 **   ##     ##  ##   ##  ##  ##      ## ##   ##      ##   ##   ##  ##   ##   **
 **   ##  ## ##  ##   ##  ##  ##      ####     ###    ##   ######   ######    **
 **    ##  ###   ##   ##  ##  ##      ## ##      ##   ##   ##       ##        **
 **     #######   #####   ##   #####  ##  ##  ####    ##    #####   ##        **
 **           ##                                                    ##        **
 **                                                                           **
 **                                                ... make the atoms dance   **
 **                                                                           **
 **            Copyright (C) by CP2K developers group (2000-2026)             **
 **                      J. Chem. Phys. 152, 194103 (2020)                    **
 **                                                                           **
 *******************************************************************************

 DFT| Spin restricted Kohn-Sham (RKS) calculation                            RKS
 DFT| Multiplicity                                                             1
 DFT| Number of spin states                                                    1
 DFT| Charge                                                                   0
 DFT| Self-interaction correction (SIC)                                       NO
 DFT| Cutoffs: density                                              1.000000E-10
 DFT|          gradient                                             1.000000E-10
 DFT|          tau                                                  1.000000E-10
 DFT|          cutoff_smoothing_range                               0.000000E+00
 DFT| XC density smoothing                                                  NONE
 DFT| XC derivatives                                                          PW

 FUNCTIONAL| PBE:
 FUNCTIONAL| J.P.Perdew, K.Burke, M.Ernzerhof, Phys. Rev. Letter, vol. 77, n 18,
 FUNCTIONAL|  pp. 3865-3868, (1996) {spin unpolarized}                          


 QS| Method:                                                                GAPW
 QS| Density plane wave grid type                        NON-SPHERICAL FULLSPACE
 QS| Number of grid levels:                                                    4
 QS| Density cutoff [a.u.]:                                                300.0
 QS| Multi grid cutoff [a.u.]: 1) grid level                               300.0
 QS|                           2) grid level                               100.0
 QS|                           3) grid level                                33.3
 QS|                           4) grid level                                11.1
 QS| Grid level progression factor:                                          3.0
 QS| Relative density cutoff [a.u.]:                                        30.0
 QS| Interaction thresholds: eps_pgf_orb:                                3.2E-08
 QS|                         eps_filter_matrix:                          0.0E+00
 QS|                         eps_core_charge:                            1.0E-17
 QS|                         eps_rho_gspace:                             1.0E-15
 QS|                         eps_rho_rspace:                             1.0E-15
 QS|                         eps_gvg_rspace:                             3.2E-08
 QS|                         eps_ppl:                                    1.0E-02
 QS|                         eps_ppnl:                                   3.2E-10
 QS| GAPW|      One center basis from orbital basis primitives
 QS| GAPW|                   eps_fit:                                    1.0E-04
 QS| GAPW|                   eps_iso:                                    1.0E-12
 QS| GAPW|                   eps_svd:                                    1.0E-08
 QS| GAPW|                   eps_cpc:                                    1.0E-15
 QS| GAPW|   atom-r-grid: quadrature:                                     GC_LOG
 QS| GAPW|      atom-s-grid:  max l :                                          2
 QS| GAPW|      max_l_rho0 :                                                   2
 QS| GAPW|      At least one kind is NOT PAW, i.e. it has only soft AO 
 QS| GAPW|      The NOT PAW atoms are treated fully GPW


 ATOMIC KIND INFORMATION

  1. Atomic kind: H                                     Number of atoms:      16

     Orbital Basis Set                                    aug-SZV-MOLOPT-ae-mini

       Number of orbital shell sets:                                           1
       Number of orbital shells:                                               4
       Number of primitive Cartesian functions:                                4
       Number of Cartesian basis functions:                                    6
       Number of spherical basis functions:                                    6
       Norm type:                                                              2

       Normalised Cartesian orbitals:

                        Set   Shell   Orbital            Exponent    Coefficient

                          1       1    2s                0.065428       0.000000
                                                         0.168855       0.083474
                                                         0.623914       0.267839
                                                         3.425251       0.276934

                          1       2    3s                0.065428      -0.066952
                                                         0.168855       0.261968
                                                         0.623914       0.081548
                                                         3.425251      -0.022414

                          1       3    4s                0.065428       0.165615
                                                         0.168855      -0.226449
                                                         0.623914      -0.005802
                                                         3.425251       0.005451

                          1       4    3px               0.065428       0.053063
                                                         0.168855      -0.030502
                                                         0.623914       0.062721
                                                         3.425251       0.019012
                          1       4    3py               0.065428       0.053063
                                                         0.168855      -0.030502
                                                         0.623914       0.062721
                                                         3.425251       0.019012
                          1       4    3pz               0.065428       0.053063
                                                         0.168855      -0.030502
                                                         0.623914       0.062721
                                                         3.425251       0.019012

     RI Auxiliary Basis Set                      RI_aug-SZV-MOLOPT-ae-mini_tier1

       Number of orbital shell sets:                                           2
       Number of orbital shells:                                               2
       Number of primitive Cartesian functions:                                2
       Number of Cartesian basis functions:                                    2
       Number of spherical basis functions:                                    2
       Norm type:                                                              2

       Normalised Cartesian orbitals:

                        Set   Shell   Orbital            Exponent    Coefficient

                          1       1    1s                0.636484       0.507868

                          2       1    2s                2.457925       1.399061

       Atomic covalent radius [Angstrom]:                                  0.320

       Atomic van der Waals radius [Angstrom]:                             1.090

     AE Potential information for                                            ALL

       Description:                                       All-electron potential
                                          Krack, Parrinello, PCCP 2, 2105 (2000)

       Gaussian exponent of the core charge distribution:              12.500000
       Electronic configuration (s p d ...):                           1   0   0

  2. Atomic kind: C                                     Number of atoms:      28

     Orbital Basis Set                                    aug-SZV-MOLOPT-ae-mini

       Number of orbital shell sets:                                           2
       Number of orbital shells:                                               5
       Number of primitive Cartesian functions:                                7
       Number of Cartesian basis functions:                                    9
       Number of spherical basis functions:                                    9
       Norm type:                                                              2

       Normalised Cartesian orbitals:

                        Set   Shell   Orbital            Exponent    Coefficient

                          1       1    1s               71.616837       2.707801
                                                        13.045096       2.618883
                                                         3.530512       0.816191

                          2       1    2s                0.114558       0.000000
                                                         0.222289       0.161536
                                                         0.683483       0.214036
                                                         2.941249      -0.160017

                          2       2    3s                0.114558       0.000272
                                                         0.222289       0.256636
                                                         0.683483      -0.079244
                                                         2.941249       0.000032

                          2       3    3px               0.114558       0.000000
                                                         0.222289       0.085276
                                                         0.683483       0.538304
                                                         2.941249       0.856044
                          2       3    3py               0.114558       0.000000
                                                         0.222289       0.085276
                                                         0.683483       0.538304
                                                         2.941249       0.856044
                          2       3    3pz               0.114558       0.000000
                                                         0.222289       0.085276
                                                         0.683483       0.538304
                                                         2.941249       0.856044

                          2       4    4px               0.114558      -0.035043
                                                         0.222289      -0.159067
                                                         0.683483       0.106927
                                                         2.941249      -0.036832
                          2       4    4py               0.114558      -0.035043
                                                         0.222289      -0.159067
                                                         0.683483       0.106927
                                                         2.941249      -0.036832
                          2       4    4pz               0.114558      -0.035043
                                                         0.222289      -0.159067
                                                         0.683483       0.106927
                                                         2.941249      -0.036832

     RI Auxiliary Basis Set                      RI_aug-SZV-MOLOPT-ae-mini_tier1

       Number of orbital shell sets:                                           7
       Number of orbital shells:                                               7
       Number of primitive Cartesian functions:                                7
       Number of Cartesian basis functions:                                   11
       Number of spherical basis functions:                                   11
       Norm type:                                                              2

       Normalised Cartesian orbitals:

                        Set   Shell   Orbital            Exponent    Coefficient

                          1       1    1s                0.916541       0.667612

                          2       1    2s                1.427899       0.930964

                          3       1    3s                2.204249       1.289305

                          4       1    4s                3.433303       1.797605

                          5       1    5s                5.397142       2.523673

                          6       1    6px               0.514441       0.621025
                          6       1    6py               0.514441       0.621025
                          6       1    6pz               0.514441       0.621025

                          7       1    7px               1.555827       2.476805
                          7       1    7py               1.555827       2.476805
                          7       1    7pz               1.555827       2.476805

       Atomic covalent radius [Angstrom]:                                  0.770

       Atomic van der Waals radius [Angstrom]:                             1.700

     The atoms of this atomic kind are PAW atoms (GAPW):
       Hard Gaussian function radius:                                      1.512
       Rho0 radius:                                                        1.512
       Maximum GTO radius used for PAW projector construction:            24.566

     GAPW Soft Basis Set                             aug-SZV-MOLOPT-ae-mini_soft

       Number of orbital shell sets:                                           2
       Number of orbital shells:                                               5
       Number of primitive Cartesian functions:                                5
       Number of Cartesian basis functions:                                    9
       Number of spherical basis functions:                                    9
       Norm type:                                                              2

       Normalised Cartesian orbitals:

                        Set   Shell   Orbital            Exponent    Coefficient

                          1       1    1s                3.530512       0.816191

                          2       1    2s                0.114558       0.000000
                                                         0.222289       0.161536
                                                         0.683483       0.214036
                                                         2.941249      -0.160017

                          2       2    3s                0.114558       0.000272
                                                         0.222289       0.256636
                                                         0.683483      -0.079244
                                                         2.941249       0.000032

                          2       3    3px               0.114558       0.000000
                                                         0.222289       0.085276
                                                         0.683483       0.538304
                                                         2.941249       0.856044
                          2       3    3py               0.114558       0.000000
                                                         0.222289       0.085276
                                                         0.683483       0.538304
                                                         2.941249       0.856044
                          2       3    3pz               0.114558       0.000000
                                                         0.222289       0.085276
                                                         0.683483       0.538304
                                                         2.941249       0.856044

                          2       4    4px               0.114558      -0.035043
                                                         0.222289      -0.159067
                                                         0.683483       0.106927
                                                         2.941249      -0.036832
                          2       4    4py               0.114558      -0.035043
                                                         0.222289      -0.159067
                                                         0.683483       0.106927
                                                         2.941249      -0.036832
                          2       4    4pz               0.114558      -0.035043
                                                         0.222289      -0.159067
                                                         0.683483       0.106927
                                                         2.941249      -0.036832

     AE Potential information for                                            ALL

       Description:                                       All-electron potential
                                          Krack, Parrinello, PCCP 2, 2105 (2000)

       Gaussian exponent of the core charge distribution:               4.109048
       Electronic configuration (s p d ...):                           4   2   0


 MOLECULE KIND INFORMATION


 All atoms are their own molecule, skipping detailed information


 TOTAL NUMBERS AND MAXIMUM NUMBERS

  Total number of            - Atomic kinds:                                   2
                             - Atoms:                                         44
                             - Shell sets:                                    72
                             - Shells:                                       204
                             - Primitive Cartesian functions:                260
                             - Cartesian basis functions:                    348
                             - Spherical basis functions:                    348

  Maximum angular momentum of the orbital basis functions:                     1


 MODULE QUICKSTEP: ATOMIC COORDINATES IN ANGSTROM

   Atom Kind Element         X             Y             Z       Z(eff)     Mass
      1    1 H     1      8.154329      6.001073      6.775000   1.0000   1.0079
      2    1 H     1     13.035671      6.001073      6.775000   1.0000   1.0079
      3    1 H     1     10.595000      6.312318      7.548044   1.0000   1.0079
      4    1 H     1     10.595000      6.312318      6.001956   1.0000   1.0079
      5    2 C     6     10.595000      7.085363      6.775000   6.0000  12.0107
      6    2 C     6      8.154329      7.094323      6.775000   6.0000  12.0107
      7    2 C     6     13.035671      7.094323      6.775000   6.0000  12.0107
      8    1 H     1      5.998191      7.309026      6.775000   1.0000   1.0079
      9    1 H     1     15.191809      7.309026      6.775000   1.0000   1.0079
     10    2 C     6      9.371477      7.798548      6.775000   6.0000  12.0107
     11    2 C     6     11.818523      7.798548      6.775000   6.0000  12.0107
     12    2 C     6     14.230017      7.828793      6.775000   6.0000  12.0107
     13    2 C     6      6.959983      7.828793      6.775000   6.0000  12.0107
     14    2 C     6      6.959983      9.187147      6.775000   6.0000  12.0107
     15    2 C     6     14.230017      9.187147      6.775000   6.0000  12.0107
     16    2 C     6     11.818523      9.217393      6.775000   6.0000  12.0107
     17    2 C     6      9.371477      9.217393      6.775000   6.0000  12.0107
     18    1 H     1      5.998191      9.706915      6.775000   1.0000   1.0079
     19    1 H     1     15.191809      9.706915      6.775000   1.0000   1.0079
     20    2 C     6     13.035671      9.921618      6.775000   6.0000  12.0107
     21    2 C     6      8.154329      9.921618      6.775000   6.0000  12.0107
     22    2 C     6     10.595000      9.930578      6.775000   6.0000  12.0107
     23    2 C     6     10.595000     11.349423      6.775000   6.0000  12.0107
     24    2 C     6     13.035671     11.358382      6.775000   6.0000  12.0107
     25    2 C     6      8.154329     11.358382      6.775000   6.0000  12.0107
     26    1 H     1      5.998191     11.573085      6.775000   1.0000   1.0079
     27    1 H     1     15.191809     11.573085      6.775000   1.0000   1.0079
     28    2 C     6     11.818523     12.062607      6.775000   6.0000  12.0107
     29    2 C     6      9.371477     12.062607      6.775000   6.0000  12.0107
     30    2 C     6      6.959983     12.092853      6.775000   6.0000  12.0107
     31    2 C     6     14.230017     12.092853      6.775000   6.0000  12.0107
     32    2 C     6      6.959983     13.451207      6.775000   6.0000  12.0107
     33    2 C     6     14.230017     13.451207      6.775000   6.0000  12.0107
     34    2 C     6     11.818523     13.481452      6.775000   6.0000  12.0107
     35    2 C     6      9.371477     13.481452      6.775000   6.0000  12.0107
     36    1 H     1      5.998191     13.970974      6.775000   1.0000   1.0079
     37    1 H     1     15.191809     13.970974      6.775000   1.0000   1.0079
     38    2 C     6      8.154329     14.185677      6.775000   6.0000  12.0107
     39    2 C     6     13.035671     14.185677      6.775000   6.0000  12.0107
     40    2 C     6     10.595000     14.194637      6.775000   6.0000  12.0107
     41    1 H     1     10.595000     14.967682      7.548044   1.0000   1.0079
     42    1 H     1     10.595000     14.967682      6.001956   1.0000   1.0079
     43    1 H     1     13.035671     15.278927      6.775000   1.0000   1.0079
     44    1 H     1      8.154329     15.278927      6.775000   1.0000   1.0079



 SCF PARAMETERS         Density guess:                                   RESTART
                        --------------------------------------------------------
                        max_scf:                                             200
                        max_scf_history:                                       0
                        max_diis:                                              4
                        --------------------------------------------------------
                        eps_scf:                                        1.00E-06
                        eps_scf_history:                                0.00E+00
                        eps_diis:                                       1.00E-01
                        eps_eigval:                                     1.00E-05
                        --------------------------------------------------------
                        level_shift [a.u.]:                             0.000000
                        added MOs                                       100    0
                        --------------------------------------------------------
                        Mixing method:                            BROYDEN_MIXING
                                                charge density mixing in g-space
                        --------------------------------------------------------
                        Smear method:                                FERMI_DIRAC
                        Electronic temperature [K]:                        100.0
                        Electronic temperature [a.u.]:                  3.17E-04
                        Accuracy threshold:                             1.00E-10
                        --------------------------------------------------------
                        No outer SCF

 PW_GRID| Information for grid number                                          1
 PW_GRID| Grid distributed over                                    48 processors
 PW_GRID| Real space group dimensions                                    48    1
 PW_GRID| the grid is blocked:                                                NO
 PW_GRID| Cutoff [a.u.]                                                    300.0
 PW_GRID| spherical cutoff:                                                   NO
 PW_GRID|   Bounds   1           -157     157                Points:         315
 PW_GRID|   Bounds   2           -157     157                Points:         315
 PW_GRID|   Bounds   3           -100      99                Points:         200
 PW_GRID| Volume element (a.u.^3)  0.2078E-02     Volume (a.u.^3)     41232.3875
 PW_GRID| Grid span                                                    FULLSPACE
 PW_GRID|   Distribution                         Average         Max         Min
 PW_GRID|   G-Vectors                           413437.5      413595      413280
 PW_GRID|   G-Rays                                1312.5        1313        1312
 PW_GRID|   Real Space Points                   413437.5      441000      378000

 PW_GRID| Information for grid number                                          2
 PW_GRID| Number of the reference grid                                         1
 PW_GRID| Grid distributed over                                    48 processors
 PW_GRID| Real space group dimensions                                    48    1
 PW_GRID| the grid is blocked:                                                NO
 PW_GRID| Cutoff [a.u.]                                                    100.0
 PW_GRID| spherical cutoff:                                                   NO
 PW_GRID|   Bounds   1            -94      94                Points:         189
 PW_GRID|   Bounds   2            -94      94                Points:         189
 PW_GRID|   Bounds   3            -60      59                Points:         120
 PW_GRID| Volume element (a.u.^3)  0.9619E-02     Volume (a.u.^3)     41232.3875
 PW_GRID| Grid span                                                    FULLSPACE
 PW_GRID|   Distribution                         Average         Max         Min
 PW_GRID|   G-Vectors                            89302.5       90342       87318
 PW_GRID|   G-Rays                                 472.5         478         462
 PW_GRID|   Real Space Points                    89302.5       90720       68040

 PW_GRID| Information for grid number                                          3
 PW_GRID| Number of the reference grid                                         1
 PW_GRID| Grid distributed over                                    48 processors
 PW_GRID| Real space group dimensions                                    48    1
 PW_GRID| the grid is blocked:                                                NO
 PW_GRID| Cutoff [a.u.]                                                     33.3
 PW_GRID| spherical cutoff:                                                   NO
 PW_GRID|   Bounds   1            -52      52                Points:         105
 PW_GRID|   Bounds   2            -52      52                Points:         105
 PW_GRID|   Bounds   3            -35      34                Points:          70
 PW_GRID| Volume element (a.u.^3)  0.5343E-01     Volume (a.u.^3)     41232.3875
 PW_GRID| Grid span                                                    FULLSPACE
 PW_GRID|   Distribution                         Average         Max         Min
 PW_GRID|   G-Vectors                            16078.1       16485       15750
 PW_GRID|   G-Rays                                 153.1         157         150
 PW_GRID|   Real Space Points                    16078.1       22050       14700

 PW_GRID| Information for grid number                                          4
 PW_GRID| Number of the reference grid                                         1
 PW_GRID| Grid distributed over                                    48 processors
 PW_GRID| Real space group dimensions                                    48    1
 PW_GRID| the grid is blocked:                                                NO
 PW_GRID| Cutoff [a.u.]                                                     11.1
 PW_GRID| spherical cutoff:                                                   NO
 PW_GRID|   Bounds   1            -31      31                Points:          63
 PW_GRID|   Bounds   2            -31      31                Points:          63
 PW_GRID|   Bounds   3            -20      19                Points:          40
 PW_GRID| Volume element (a.u.^3)  0.2597         Volume (a.u.^3)     41232.3875
 PW_GRID| Grid span                                                    FULLSPACE
 PW_GRID|   Distribution                         Average         Max         Min
 PW_GRID|   G-Vectors                             3307.5        3528        3087
 PW_GRID|   G-Rays                                  52.5          56          49
 PW_GRID|   Real Space Points                     3307.5        5040        2520

 POISSON| Solver                                             MULTIPOLE (Bloechl)
 POISSON| Periodicity                                                       NONE

 RS_GRID| Information for grid number                                          1
 RS_GRID|   Bounds   1           -157     157                Points:         315
 RS_GRID|   Bounds   2           -157     157                Points:         315
 RS_GRID|   Bounds   3           -100      99                Points:         200
 RS_GRID| Real space distribution over                                  6 groups
 RS_GRID| Real space distribution along direction                              1
 RS_GRID| Border size                                                         28
 RS_GRID| Real space distribution over                                  8 groups
 RS_GRID| Real space distribution along direction                              2
 RS_GRID| Border size                                                         28
 RS_GRID|   Distribution                         Average         Max         Min
 RS_GRID|   Planes                                 108.5         109         108
 RS_GRID|   Distribution                         Average         Max         Min
 RS_GRID|   Planes                                  95.4          96          95

 RS_GRID| Information for grid number                                          2
 RS_GRID|   Bounds   1            -94      94                Points:         189
 RS_GRID|   Bounds   2            -94      94                Points:         189
 RS_GRID|   Bounds   3            -60      59                Points:         120
 RS_GRID| Real space distribution over                                  6 groups
 RS_GRID| Real space distribution along direction                              1
 RS_GRID| Border size                                                         29
 RS_GRID| Real space distribution over                                  8 groups
 RS_GRID| Real space distribution along direction                              2
 RS_GRID| Border size                                                         29
 RS_GRID|   Distribution                         Average         Max         Min
 RS_GRID|   Planes                                  89.5          90          89
 RS_GRID|   Distribution                         Average         Max         Min
 RS_GRID|   Planes                                  81.6          82          81

 RS_GRID| Information for grid number                                          3
 RS_GRID|   Bounds   1            -52      52                Points:         105
 RS_GRID|   Bounds   2            -52      52                Points:         105
 RS_GRID|   Bounds   3            -35      34                Points:          70
 RS_GRID| Real space fully replicated
 RS_GRID| Group size                                                           1

 RS_GRID| Information for grid number                                          4
 RS_GRID|   Bounds   1            -31      31                Points:          63
 RS_GRID|   Bounds   2            -31      31                Points:          63
 RS_GRID|   Bounds   3            -20      19                Points:          40
 RS_GRID| Real space fully replicated
 RS_GRID| Group size                                                           1

 OVERLAP MATRIX CONDITION NUMBER
 1-Norm Condition Number (Estimate)
   CN : |A|*|A^-1|:  1.872E+001 *  4.318E+003   = 8.086E+004  Log(1-CN):  4.9077
 1-Norm and 2-Norm Condition Numbers using Diagonalization
   CN : |A|*|A^-1|:  1.872E+001 *  4.318E+003   = 8.086E+004  Log(1-CN):  4.9077
   CN : max/min ev:  8.957E+000 /  5.900E-004   = 1.518E+004  Log(2-CN):  4.1813

 Extrapolation method: initial_guess

 *** WARNING in qs_initial_guess.F:308 :: User requested to restart the    ***
 *** wavefunction from the file named: MOLNAME-RESTART.wfn. This file does ***
 *** not exist. Please check the existence of the file or change properly  ***
 *** the value of the keyword WFN_RESTART_FILE_NAME. Calculation continues ***
 *** using ATOMIC GUESS.                                                   ***


 Atomic guess: The first density matrix is obtained in terms of atomic orbitals
               and electronic configurations assigned to each atomic kind

 Guess for atomic kind: H

 Electronic structure
    Total number of core electrons                                          0.00
    Total number of valence electrons                                       1.00
    Total number of electrons                                               1.00
    Multiplicity                                                   not specified
    S      1.00


 *******************************************************************************
                  Iteration          Convergence                     Energy [au]
 *******************************************************************************
                          1        0.105001E-01                  -0.442912571909
                          2        0.809393E-03                  -0.443000038014
                          3        0.126045E-03                  -0.443002205783
                          4        0.926691E-07                  -0.443002227638

 Energy components [Hartree]           Total Energy ::           -0.443002227638
                                        Band Energy ::           -0.231242105371
                                     Kinetic Energy ::            0.416655567325
                                   Potential Energy ::           -0.859657794963
                                      Virial (-V/T) ::            2.063233669195
                                        Core Energy ::           -0.493343888102
                                          XC Energy ::           -0.231659799565
                                     Coulomb Energy ::            0.282001460029

 Orbital energies  State     L     Occupation   Energy[a.u.]          Energy[eV]

                       1     0          1.000      -0.231242           -6.292418


 Total Electron Density at R=0:                                         0.184980

 Guess for atomic kind: C

 Electronic structure
    Total number of core electrons                                          0.00
    Total number of valence electrons                                       6.00
    Total number of electrons                                               6.00
    Multiplicity                                                   not specified
    S      2.00  2.00
    P      2.00


 *******************************************************************************
                  Iteration          Convergence                     Energy [au]
 *******************************************************************************
                          1        0.110940                     -36.966846197933
                          2        0.618479E-01                 -36.973380131832
                          3        0.312040E-03                 -36.976281169724
                          4        0.543046E-05                 -36.976281232084
                          5        0.506045E-09                 -36.976281232104

 Energy components [Hartree]           Total Energy ::          -36.976281232104
                                        Band Energy ::          -20.794821508944
                                     Kinetic Energy ::           36.488299270274
                                   Potential Energy ::          -73.464580502377
                                      Virial (-V/T) ::            2.013373655983
                                        Core Energy ::          -49.914993802944
                                          XC Energy ::           -4.745664989265
                                     Coulomb Energy ::           17.684377560105

 Orbital energies  State     L     Occupation   Energy[a.u.]          Energy[eV]

                       1     0          2.000      -9.777613         -266.062376
                       2     0          2.000      -0.465310          -12.661731

                       1     1          2.000      -0.154488           -4.203828


 Total Electron Density at R=0:                                        77.917232
 Re-scaling the density matrix to get the right number of electrons
                  # Electrons              Trace(P)               Scaling factor
                          184               184.000                        1.000

 Number of electrons:                                                        184
 Number of occupied orbitals:                                                 92
 Number of molecular orbitals:                                               192

 Number of orbital functions:                                                348
 Number of independent orbital functions:                                    348


 SCF WAVEFUNCTION OPTIMIZATION

  Step     Update method      Time    Convergence         Total energy    Change
  ------------------------------------------------------------------------------
  Decoupling Energy:                                              -0.0000224670

 MO| EIGENVALUES AND OCCUPATION NUMBERS AFTER SCF STEP 0
 MO|
 MO|  Index      Eigenvalue [a.u.]        Eigenvalue [eV]             Occupation
 MO|      1             -10.011196            -272.418491               2.000000
 MO|      2             -10.011176            -272.417943               2.000000
 MO|      3              -9.983791            -271.672756               2.000000
 MO|      4              -9.983790            -271.672744               2.000000
 MO|      5              -9.983762            -271.671980               2.000000
 MO|      6              -9.983757            -271.671847               2.000000
 MO|      7              -9.983152            -271.655390               2.000000
 MO|      8              -9.983151            -271.655364               2.000000
 MO|      9              -9.983060            -271.652869               2.000000
 MO|     10              -9.983058            -271.652831               2.000000
 MO|     11              -9.977130            -271.491510               2.000000
 MO|     12              -9.977125            -271.491373               2.000000
 MO|     13              -9.977121            -271.491260               2.000000
 MO|     14              -9.977111            -271.491003               2.000000
 MO|     15              -9.962017            -271.080266               2.000000
 MO|     16              -9.961997            -271.079725               2.000000
 MO|     17              -9.961990            -271.079528               2.000000
 MO|     18              -9.961978            -271.079219               2.000000
 MO|     19              -9.959468            -271.010916               2.000000
 MO|     20              -9.959463            -271.010771               2.000000
 MO|     21              -9.959347            -271.007611               2.000000
 MO|     22              -9.959330            -271.007153               2.000000
 MO|     23              -9.958778            -270.992118               2.000000
 MO|     24              -9.958700            -270.990010               2.000000
 MO|     25              -9.958660            -270.988923               2.000000
 MO|     26              -9.958639            -270.988344               2.000000
 MO|     27              -9.957615            -270.960480               2.000000
 MO|     28              -9.957403            -270.954713               2.000000
 MO|     29              -0.953580             -25.948226               2.000000
 MO|     30              -0.935240             -25.449175               2.000000
 MO|     31              -0.926710             -25.217053               2.000000
 MO|     32              -0.906623             -24.670462               2.000000
 MO|     33              -0.891209             -24.251024               2.000000
 MO|     34              -0.881252             -23.980091               2.000000
 MO|     35              -0.872620             -23.745200               2.000000
 MO|     36              -0.845385             -23.004097               2.000000
 MO|     37              -0.823223             -22.401025               2.000000
 MO|     38              -0.819267             -22.293376               2.000000
 MO|     39              -0.809596             -22.030223               2.000000
 MO|     40              -0.804955             -21.903951               2.000000
 MO|     41              -0.785257             -21.367936               2.000000
 MO|     42              -0.760767             -20.701516               2.000000
 MO|     43              -0.748197             -20.359479               2.000000
 MO|     44              -0.714149             -19.432984               2.000000
 MO|     45              -0.713081             -19.403927               2.000000
 MO|     46              -0.707137             -19.242176               2.000000
 MO|     47              -0.693377             -18.867755               2.000000
 MO|     48              -0.673830             -18.335839               2.000000
 MO|     49              -0.643269             -17.504240               2.000000
 MO|     50              -0.642664             -17.487779               2.000000
 MO|     51              -0.639990             -17.415005               2.000000
 MO|     52              -0.617731             -16.809308               2.000000
 MO|     53              -0.609098             -16.574395               2.000000
 MO|     54              -0.598673             -16.290717               2.000000
 MO|     55              -0.576163             -15.678198               2.000000
 MO|     56              -0.562213             -15.298598               2.000000
 MO|     57              -0.560866             -15.261931               2.000000
 MO|     58              -0.559276             -15.218669               2.000000
 MO|     59              -0.554627             -15.092177               2.000000
 MO|     60              -0.540375             -14.704355               2.000000
 MO|     61              -0.538279             -14.647325               2.000000
 MO|     62              -0.523115             -14.234670               2.000000
 MO|     63              -0.517783             -14.089602               2.000000
 MO|     64              -0.516928             -14.066329               2.000000
 MO|     65              -0.514894             -14.010966               2.000000
 MO|     66              -0.507340             -13.805432               2.000000
 MO|     67              -0.506570             -13.784469               2.000000
 MO|     68              -0.505641             -13.759193               2.000000
 MO|     69              -0.494991             -13.469388               2.000000
 MO|     70              -0.488784             -13.300483               2.000000
 MO|     71              -0.482911             -13.140671               2.000000
 MO|     72              -0.470685             -12.807983               2.000000
 MO|     73              -0.458234             -12.469168               2.000000
 MO|     74              -0.457375             -12.445815               2.000000
 MO|     75              -0.455909             -12.405922               2.000000
 MO|     76              -0.447354             -12.173132               2.000000
 MO|     77              -0.442230             -12.033686               2.000000
 MO|     78              -0.438644             -11.936101               2.000000
 MO|     79              -0.435422             -11.848427               2.000000
 MO|     80              -0.420716             -11.448270               2.000000
 MO|     81              -0.411394             -11.194589               2.000000
 MO|     82              -0.404260             -11.000468               2.000000
 MO|     83              -0.400430             -10.896246               2.000000
 MO|     84              -0.395089             -10.750907               2.000000
 MO|     85              -0.358378              -9.751975               2.000000
 MO|     86              -0.350959              -9.550072               2.000000
 MO|     87              -0.338423              -9.208947               2.000000
 MO|     88              -0.329890              -8.976776               2.000000
 MO|     89              -0.325521              -8.857888               2.000000
 MO|     90              -0.296786              -8.075969               2.000000
 MO|     91              -0.294568              -8.015596               2.000000
 MO|     92              -0.265054              -7.212473               2.000000
 MO|     93              -0.167417              -4.555662               0.000000
 MO|     94              -0.162052              -4.409673               0.000000
 MO|     95              -0.158706              -4.318599               0.000000
 MO|     96              -0.137431              -3.739677               0.000000
 MO|     97              -0.122594              -3.335958               0.000000
 MO|     98              -0.107775              -2.932717               0.000000
 MO|     99              -0.095148              -2.589115               0.000000
 MO|    100              -0.089653              -2.439590               0.000000
 MO|    101              -0.048889              -1.330328               0.000000
 MO|    102              -0.043060              -1.171723               0.000000
 MO|    103              -0.040766              -1.109306               0.000000
 MO|    104              -0.037572              -1.022373               0.000000
 MO|    105              -0.031428              -0.855210               0.000000
 MO|    106              -0.025126              -0.683707               0.000000
 MO|    107              -0.016845              -0.458363               0.000000
 MO|    108              -0.015042              -0.409307               0.000000
 MO|    109              -0.008187              -0.222773               0.000000
 MO|    110              -0.007279              -0.198072               0.000000
 MO|    111               0.004645               0.126399               0.000000
 MO|    112               0.012549               0.341470               0.000000
 MO|    113               0.021604               0.587863               0.000000
 MO|    114               0.023384               0.636303               0.000000
 MO|    115               0.023484               0.639022               0.000000
 MO|    116               0.026884               0.731537               0.000000
 MO|    117               0.042658               1.160796               0.000000
 MO|    118               0.042768               1.163776               0.000000
 MO|    119               0.046640               1.269135               0.000000
 MO|    120               0.053137               1.445922               0.000000
 MO|    121               0.055415               1.507908               0.000000
 MO|    122               0.057364               1.560947               0.000000
 MO|    123               0.058337               1.587435               0.000000
 MO|    124               0.063232               1.720618               0.000000
 MO|    125               0.065391               1.779386               0.000000
 MO|    126               0.072442               1.971249               0.000000
 MO|    127               0.075415               2.052140               0.000000
 MO|    128               0.084483               2.298912               0.000000
 MO|    129               0.085393               2.323671               0.000000
 MO|    130               0.087016               2.367838               0.000000
 MO|    131               0.087758               2.388023               0.000000
 MO|    132               0.088801               2.416393               0.000000
 MO|    133               0.089695               2.440731               0.000000
 MO|    134               0.090901               2.473532               0.000000
 MO|    135               0.098188               2.671828               0.000000
 MO|    136               0.101755               2.768900               0.000000
 MO|    137               0.109054               2.967507               0.000000
 MO|    138               0.109331               2.975060               0.000000
 MO|    139               0.110821               3.015581               0.000000
 MO|    140               0.110903               3.017822               0.000000
 MO|    141               0.118121               3.214247               0.000000
 MO|    142               0.121252               3.299436               0.000000
 MO|    143               0.121286               3.300368               0.000000
 MO|    144               0.122661               3.337762               0.000000
 MO|    145               0.126758               3.449261               0.000000
 MO|    146               0.132633               3.609122               0.000000
 MO|    147               0.134756               3.666899               0.000000
 MO|    148               0.135674               3.691882               0.000000
 MO|    149               0.136051               3.702143               0.000000
 MO|    150               0.139210               3.788089               0.000000
 MO|    151               0.149008               4.054727               0.000000
 MO|    152               0.150736               4.101736               0.000000
 MO|    153               0.156236               4.251388               0.000000
 MO|    154               0.156768               4.265875               0.000000
 MO|    155               0.162728               4.428058               0.000000
 MO|    156               0.167365               4.554244               0.000000
 MO|    157               0.169076               4.600793               0.000000
 MO|    158               0.173300               4.715721               0.000000
 MO|    159               0.173635               4.724854               0.000000
 MO|    160               0.178260               4.850700               0.000000
 MO|    161               0.179868               4.894461               0.000000
 MO|    162               0.184790               5.028381               0.000000
 MO|    163               0.188212               5.121519               0.000000
 MO|    164               0.194930               5.304323               0.000000
 MO|    165               0.198455               5.400228               0.000000
 MO|    166               0.203012               5.524235               0.000000
 MO|    167               0.210225               5.720513               0.000000
 MO|    168               0.212757               5.789413               0.000000
 MO|    169               0.215802               5.872268               0.000000
 MO|    170               0.224650               6.113031               0.000000
 MO|    171               0.224782               6.116618               0.000000
 MO|    172               0.225323               6.131345               0.000000
 MO|    173               0.227286               6.184763               0.000000
 MO|    174               0.232549               6.327994               0.000000
 MO|    175               0.234085               6.369782               0.000000
 MO|    176               0.238298               6.484412               0.000000
 MO|    177               0.243977               6.638950               0.000000
 MO|    178               0.254976               6.938257               0.000000
 MO|    179               0.257086               6.995671               0.000000
 MO|    180               0.262903               7.153944               0.000000
 MO|    181               0.267999               7.292629               0.000000
 MO|    182               0.282726               7.693376               0.000000
 MO|    183               0.289258               7.871102               0.000000
 MO|    184               0.289373               7.874239               0.000000
 MO|    185               0.290906               7.915967               0.000000
 MO|    186               0.299618               8.153032               0.000000
 MO|    187               0.304410               8.283407               0.000000
 MO|    188               0.311140               8.466560               0.000000
 MO|    189               0.311852               8.485928               0.000000
 MO|    190               0.315924               8.596740               0.000000
 MO|    191               0.315992               8.598571               0.000000
 MO|    192               0.331697               9.025922               0.000000
 MO| Sum:                                                             184.000000
 MO| E(Fermi):           -0.177734 a.u.         -4.836397 eV
 MO| Band gap:            0.097636 a.u.          2.656811 eV

     1 NoMix/Diag. 0.40E+00    0.2     0.58778890     -1070.8605975812 -1.07E+03
  Decoupling Energy:                                               0.0024837848

 MO| EIGENVALUES AND OCCUPATION NUMBERS AFTER SCF STEP 1
 MO|
 MO|  Index      Eigenvalue [a.u.]        Eigenvalue [eV]             Occupation
 MO|      1              -9.948042            -270.699980               2.000000
 MO|      2              -9.947848            -270.694699               2.000000
 MO|      3              -9.946500            -270.658028               2.000000
 MO|      4              -9.946364            -270.654322               2.000000
 MO|      5              -9.946360            -270.654228               2.000000
 MO|      6              -9.946303            -270.652671               2.000000
 MO|      7              -9.945389            -270.627788               2.000000
 MO|      8              -9.945386            -270.627707               2.000000
 MO|      9              -9.945374            -270.627396               2.000000
 MO|     10              -9.945369            -270.627261               2.000000
 MO|     11              -9.942921            -270.560628               2.000000
 MO|     12              -9.942905            -270.560209               2.000000
 MO|     13              -9.942763            -270.556347               2.000000
 MO|     14              -9.942758            -270.556216               2.000000
 MO|     15              -9.913797            -269.768137               2.000000
 MO|     16              -9.913778            -269.767621               2.000000
 MO|     17              -9.904701            -269.520628               2.000000
 MO|     18              -9.904695            -269.520462               2.000000
 MO|     19              -9.904693            -269.520391               2.000000
 MO|     20              -9.904682            -269.520113               2.000000
 MO|     21              -9.903794            -269.495928               2.000000
 MO|     22              -9.903792            -269.495882               2.000000
 MO|     23              -9.903710            -269.493655               2.000000
 MO|     24              -9.903707            -269.493582               2.000000
 MO|     25              -9.902533            -269.461635               2.000000
 MO|     26              -9.902533            -269.461617               2.000000
 MO|     27              -9.902502            -269.460778               2.000000
 MO|     28              -9.902499            -269.460701               2.000000
 MO|     29              -0.943278             -25.667908               2.000000
 MO|     30              -0.914708             -24.890469               2.000000
 MO|     31              -0.906629             -24.670642               2.000000
 MO|     32              -0.876912             -23.861999               2.000000
 MO|     33              -0.867796             -23.613927               2.000000
 MO|     34              -0.855045             -23.266967               2.000000
 MO|     35              -0.833670             -22.685316               2.000000
 MO|     36              -0.819173             -22.290843               2.000000
 MO|     37              -0.806138             -21.936134               2.000000
 MO|     38              -0.791492             -21.537586               2.000000
 MO|     39              -0.776981             -21.142726               2.000000
 MO|     40              -0.776102             -21.118822               2.000000
 MO|     41              -0.760649             -20.698320               2.000000
 MO|     42              -0.722122             -19.649940               2.000000
 MO|     43              -0.717910             -19.535318               2.000000
 MO|     44              -0.694464             -18.897321               2.000000
 MO|     45              -0.686905             -18.691641               2.000000
 MO|     46              -0.682324             -18.566991               2.000000
 MO|     47              -0.665227             -18.101754               2.000000
 MO|     48              -0.640439             -17.427231               2.000000
 MO|     49              -0.617557             -16.804592               2.000000
 MO|     50              -0.614987             -16.734658               2.000000
 MO|     51              -0.612000             -16.653371               2.000000
 MO|     52              -0.592012             -16.109460               2.000000
 MO|     53              -0.582901             -15.861538               2.000000
 MO|     54              -0.568497             -15.469594               2.000000
 MO|     55              -0.549000             -14.939045               2.000000
 MO|     56              -0.531413             -14.460484               2.000000
 MO|     57              -0.527212             -14.346167               2.000000
 MO|     58              -0.525986             -14.312807               2.000000
 MO|     59              -0.522312             -14.212839               2.000000
 MO|     60              -0.517577             -14.083993               2.000000
 MO|     61              -0.502999             -13.687294               2.000000
 MO|     62              -0.499949             -13.604295               2.000000
 MO|     63              -0.492294             -13.395995               2.000000
 MO|     64              -0.492015             -13.388409               2.000000
 MO|     65              -0.482540             -13.130574               2.000000
 MO|     66              -0.481562             -13.103963               2.000000
 MO|     67              -0.478009             -13.007295               2.000000
 MO|     68              -0.476984             -12.979398               2.000000
 MO|     69              -0.464954             -12.652037               2.000000
 MO|     70              -0.454036             -12.354945               2.000000
 MO|     71              -0.453127             -12.330220               2.000000
 MO|     72              -0.449220             -12.223910               2.000000
 MO|     73              -0.437930             -11.916688               2.000000
 MO|     74              -0.434990             -11.836685               2.000000
 MO|     75              -0.425135             -11.568506               2.000000
 MO|     76              -0.423135             -11.514097               2.000000
 MO|     77              -0.411243             -11.190500               2.000000
 MO|     78              -0.405264             -11.027807               2.000000
 MO|     79              -0.402305             -10.947271               2.000000
 MO|     80              -0.400690             -10.903338               2.000000
 MO|     81              -0.392437             -10.678745               2.000000
 MO|     82              -0.381895             -10.391892               2.000000
 MO|     83              -0.380377             -10.350582               2.000000
 MO|     84              -0.370887             -10.092344               2.000000
 MO|     85              -0.341959              -9.305177               2.000000
 MO|     86              -0.339779              -9.245851               2.000000
 MO|     87              -0.321507              -8.748662               2.000000
 MO|     88              -0.314537              -8.558989               2.000000
 MO|     89              -0.308937              -8.406612               2.000000
 MO|     90              -0.282410              -7.684769               2.000000
 MO|     91              -0.271545              -7.389104               2.000000
 MO|     92              -0.253931              -6.909813               2.000000
 MO|     93              -0.157901              -4.296713               0.000000
 MO|     94              -0.147685              -4.018722               0.000000
 MO|     95              -0.144169              -3.923051               0.000000
 MO|     96              -0.122423              -3.331291               0.000000
 MO|     97              -0.105959              -2.883286               0.000000
 MO|     98              -0.095442              -2.597099               0.000000
 MO|     99              -0.077075              -2.097311               0.000000
 MO|    100              -0.071527              -1.946351               0.000000
 MO|    101              -0.048984              -1.332923               0.000000
 MO|    102              -0.044041              -1.198421               0.000000
 MO|    103              -0.041403              -1.126646               0.000000
 MO|    104              -0.034342              -0.934492               0.000000
 MO|    105              -0.024758              -0.673688               0.000000
 MO|    106              -0.021302              -0.579661               0.000000
 MO|    107              -0.015525              -0.422464               0.000000
 MO|    108              -0.014665              -0.399045               0.000000
 MO|    109              -0.010269              -0.279422               0.000000
 MO|    110               0.002708               0.073689               0.000000
 MO|    111               0.008609               0.234275               0.000000
 MO|    112               0.010390               0.282727               0.000000
 MO|    113               0.015311               0.416635               0.000000
 MO|    114               0.015682               0.426718               0.000000
 MO|    115               0.018569               0.505280               0.000000
 MO|    116               0.022637               0.615994               0.000000
 MO|    117               0.034263               0.932342               0.000000
 MO|    118               0.036813               1.001732               0.000000
 MO|    119               0.037972               1.033267               0.000000
 MO|    120               0.049674               1.351689               0.000000
 MO|    121               0.050450               1.372819               0.000000
 MO|    122               0.052598               1.431267               0.000000
 MO|    123               0.053252               1.449074               0.000000
 MO|    124               0.056279               1.531439               0.000000
 MO|    125               0.068836               1.873124               0.000000
 MO|    126               0.070770               1.925741               0.000000
 MO|    127               0.074371               2.023747               0.000000
 MO|    128               0.075617               2.057653               0.000000
 MO|    129               0.077141               2.099112               0.000000
 MO|    130               0.078245               2.129146               0.000000
 MO|    131               0.086024               2.340837               0.000000
 MO|    132               0.096058               2.613872               0.000000
 MO|    133               0.099383               2.704360               0.000000
 MO|    134               0.101118               2.751561               0.000000
 MO|    135               0.103539               2.817448               0.000000
 MO|    136               0.106248               2.891161               0.000000
 MO|    137               0.106578               2.900124               0.000000
 MO|    138               0.110001               2.993268               0.000000
 MO|    139               0.110443               3.005307               0.000000
 MO|    140               0.111755               3.041007               0.000000
 MO|    141               0.112593               3.063803               0.000000
 MO|    142               0.119928               3.263398               0.000000
 MO|    143               0.120480               3.278433               0.000000
 MO|    144               0.124299               3.382357               0.000000
 MO|    145               0.125211               3.407154               0.000000
 MO|    146               0.127238               3.462310               0.000000
 MO|    147               0.130355               3.547129               0.000000
 MO|    148               0.130374               3.547646               0.000000
 MO|    149               0.137339               3.737175               0.000000
 MO|    150               0.141131               3.840382               0.000000
 MO|    151               0.143964               3.917453               0.000000
 MO|    152               0.153223               4.169410               0.000000
 MO|    153               0.159606               4.343103               0.000000
 MO|    154               0.164129               4.466186               0.000000
 MO|    155               0.164829               4.485224               0.000000
 MO|    156               0.166517               4.531146               0.000000
 MO|    157               0.170596               4.642164               0.000000
 MO|    158               0.177831               4.839023               0.000000
 MO|    159               0.180371               4.908141               0.000000
 MO|    160               0.180850               4.921168               0.000000
 MO|    161               0.184025               5.007562               0.000000
 MO|    162               0.193431               5.263516               0.000000
 MO|    163               0.197977               5.387230               0.000000
 MO|    164               0.204473               5.564000               0.000000
 MO|    165               0.205887               5.602481               0.000000
 MO|    166               0.206490               5.618892               0.000000
 MO|    167               0.211085               5.743907               0.000000
 MO|    168               0.213793               5.817592               0.000000
 MO|    169               0.224698               6.114345               0.000000
 MO|    170               0.225718               6.142104               0.000000
 MO|    171               0.229939               6.256955               0.000000
 MO|    172               0.237063               6.450810               0.000000
 MO|    173               0.243815               6.634530               0.000000
 MO|    174               0.244244               6.646225               0.000000
 MO|    175               0.246682               6.712553               0.000000
 MO|    176               0.247987               6.748056               0.000000
 MO|    177               0.248479               6.761468               0.000000
 MO|    178               0.251909               6.854803               0.000000
 MO|    179               0.259930               7.073057               0.000000
 MO|    180               0.266653               7.255986               0.000000
 MO|    181               0.278568               7.580220               0.000000
 MO|    182               0.287436               7.821532               0.000000
 MO|    183               0.299075               8.138234               0.000000
 MO|    184               0.300531               8.177877               0.000000
 MO|    185               0.304273               8.279684               0.000000
 MO|    186               0.304403               8.283217               0.000000
 MO|    187               0.304809               8.294277               0.000000
 MO|    188               0.319871               8.704133               0.000000
 MO|    189               0.328553               8.940375               0.000000
 MO|    190               0.332214               9.039999               0.000000
 MO|    191               0.335078               9.117940               0.000000
 MO|    192               0.335221               9.121829               0.000000
 MO| Sum:                                                             184.000000
 MO| E(Fermi):           -0.168218 a.u.         -4.577448 eV
 MO| Band gap:            0.096030 a.u.          2.613100 eV

     2 Broy./Diag. 0.40E+00    0.3     0.19960199     -1048.2144548069  2.26E+01
  Decoupling Energy:                                               0.0005919917

 MO| EIGENVALUES AND OCCUPATION NUMBERS AFTER SCF STEP 2
 MO|
 MO|  Index      Eigenvalue [a.u.]        Eigenvalue [eV]             Occupation
 MO|      1              -9.837350            -267.687920               2.000000
 MO|      2              -9.837145            -267.682322               2.000000
 MO|      3              -9.835355            -267.633607               2.000000
 MO|      4              -9.835337            -267.633135               2.000000
 MO|      5              -9.835216            -267.629828               2.000000
 MO|      6              -9.835205            -267.629551               2.000000
 MO|      7              -9.834047            -267.598039               2.000000
 MO|      8              -9.833964            -267.595765               2.000000
 MO|      9              -9.833940            -267.595114               2.000000
 MO|     10              -9.833913            -267.594385               2.000000
 MO|     11              -9.833706            -267.588756               2.000000
 MO|     12              -9.833686            -267.588210               2.000000
 MO|     13              -9.833639            -267.586923               2.000000
 MO|     14              -9.833638            -267.586895               2.000000
 MO|     15              -9.828213            -267.439283               2.000000
 MO|     16              -9.828208            -267.439131               2.000000
 MO|     17              -9.828205            -267.439049               2.000000
 MO|     18              -9.828195            -267.438784               2.000000
 MO|     19              -9.823555            -267.312524               2.000000
 MO|     20              -9.823554            -267.312504               2.000000
 MO|     21              -9.823527            -267.311775               2.000000
 MO|     22              -9.823523            -267.311666               2.000000
 MO|     23              -9.820555            -267.230889               2.000000
 MO|     24              -9.820553            -267.230846               2.000000
 MO|     25              -9.820468            -267.228523               2.000000
 MO|     26              -9.820466            -267.228467               2.000000
 MO|     27              -9.811532            -266.985370               2.000000
 MO|     28              -9.811514            -266.984864               2.000000
 MO|     29              -0.879550             -23.933779               2.000000
 MO|     30              -0.852565             -23.199481               2.000000
 MO|     31              -0.846326             -23.029697               2.000000
 MO|     32              -0.819476             -22.299066               2.000000
 MO|     33              -0.804115             -21.881074               2.000000
 MO|     34              -0.796556             -21.675392               2.000000
 MO|     35              -0.776524             -21.130281               2.000000
 MO|     36              -0.761355             -20.717523               2.000000
 MO|     37              -0.741752             -20.184094               2.000000
 MO|     38              -0.730972             -19.890747               2.000000
 MO|     39              -0.717019             -19.511092               2.000000
 MO|     40              -0.716883             -19.507383               2.000000
 MO|     41              -0.700384             -19.058429               2.000000
 MO|     42              -0.664016             -18.068793               2.000000
 MO|     43              -0.655522             -17.837671               2.000000
 MO|     44              -0.632312             -17.206097               2.000000
 MO|     45              -0.625220             -17.013094               2.000000
 MO|     46              -0.619895             -16.868203               2.000000
 MO|     47              -0.605852             -16.486076               2.000000
 MO|     48              -0.579328             -15.764309               2.000000
 MO|     49              -0.554609             -15.091672               2.000000
 MO|     50              -0.553112             -15.050937               2.000000
 MO|     51              -0.550888             -14.990428               2.000000
 MO|     52              -0.531836             -14.472001               2.000000
 MO|     53              -0.522763             -14.225110               2.000000
 MO|     54              -0.509046             -13.851854               2.000000
 MO|     55              -0.491423             -13.372295               2.000000
 MO|     56              -0.471435             -12.828411               2.000000
 MO|     57              -0.469491             -12.775496               2.000000
 MO|     58              -0.463946             -12.624609               2.000000
 MO|     59              -0.463920             -12.623905               2.000000
 MO|     60              -0.454462             -12.366530               2.000000
 MO|     61              -0.447813             -12.185611               2.000000
 MO|     62              -0.445989             -12.135981               2.000000
 MO|     63              -0.438729             -11.938413               2.000000
 MO|     64              -0.428710             -11.665796               2.000000
 MO|     65              -0.421378             -11.466274               2.000000
 MO|     66              -0.419870             -11.425241               2.000000
 MO|     67              -0.416184             -11.324937               2.000000
 MO|     68              -0.414470             -11.278290               2.000000
 MO|     69              -0.403583             -10.982056               2.000000
 MO|     70              -0.396646             -10.793279               2.000000
 MO|     71              -0.391511             -10.653561               2.000000
 MO|     72              -0.390347             -10.621872               2.000000
 MO|     73              -0.388264             -10.565205               2.000000
 MO|     74              -0.379676             -10.331518               2.000000
 MO|     75              -0.367055              -9.988079               2.000000
 MO|     76              -0.366464              -9.971996               2.000000
 MO|     77              -0.358640              -9.759103               2.000000
 MO|     78              -0.348739              -9.489679               2.000000
 MO|     79              -0.346292              -9.423087               2.000000
 MO|     80              -0.344561              -9.375969               2.000000
 MO|     81              -0.338497              -9.210973               2.000000
 MO|     82              -0.335290              -9.123696               2.000000
 MO|     83              -0.314018              -8.544856               2.000000
 MO|     84              -0.304899              -8.296726               2.000000
 MO|     85              -0.298338              -8.118179               2.000000
 MO|     86              -0.293579              -7.988695               2.000000
 MO|     87              -0.276190              -7.515521               2.000000
 MO|     88              -0.268031              -7.293496               2.000000
 MO|     89              -0.262053              -7.130812               2.000000
 MO|     90              -0.236348              -6.431347               2.000000
 MO|     91              -0.226396              -6.160544               2.000000
 MO|     92              -0.204446              -5.563265               2.000000
 MO|     93              -0.108414              -2.950091               0.000000
 MO|     94              -0.105731              -2.877099               0.000000
 MO|     95              -0.098164              -2.671166               0.000000
 MO|     96              -0.077251              -2.102115               0.000000
 MO|     97              -0.058082              -1.580491               0.000000
 MO|     98              -0.054268              -1.476707               0.000000
 MO|     99              -0.032424              -0.882289               0.000000
 MO|    100              -0.031454              -0.855896               0.000000
 MO|    101              -0.027880              -0.758657               0.000000
 MO|    102              -0.027053              -0.736141               0.000000
 MO|    103              -0.023322              -0.634612               0.000000
 MO|    104              -0.017134              -0.466232               0.000000
 MO|    105              -0.008990              -0.244639               0.000000
 MO|    106               0.000916               0.024935               0.000000
 MO|    107               0.005027               0.136785               0.000000
 MO|    108               0.012920               0.351584               0.000000
 MO|    109               0.018082               0.492023               0.000000
 MO|    110               0.023564               0.641210               0.000000
 MO|    111               0.024924               0.678218               0.000000
 MO|    112               0.027795               0.756350               0.000000
 MO|    113               0.028019               0.762432               0.000000
 MO|    114               0.038086               1.036383               0.000000
 MO|    115               0.038600               1.050354               0.000000
 MO|    116               0.040210               1.094177               0.000000
 MO|    117               0.049306               1.341672               0.000000
 MO|    118               0.050711               1.379929               0.000000
 MO|    119               0.060820               1.655004               0.000000
 MO|    120               0.060822               1.655051               0.000000
 MO|    121               0.065270               1.776078               0.000000
 MO|    122               0.067423               1.834664               0.000000
 MO|    123               0.072893               1.983524               0.000000
 MO|    124               0.077197               2.100642               0.000000
 MO|    125               0.082546               2.246182               0.000000
 MO|    126               0.087036               2.368373               0.000000
 MO|    127               0.089211               2.427550               0.000000
 MO|    128               0.090259               2.456078               0.000000
 MO|    129               0.098180               2.671603               0.000000
 MO|    130               0.105846               2.880218               0.000000
 MO|    131               0.115589               3.145332               0.000000
 MO|    132               0.115939               3.154872               0.000000
 MO|    133               0.124544               3.389014               0.000000
 MO|    134               0.128768               3.503942               0.000000
 MO|    135               0.128819               3.505331               0.000000
 MO|    136               0.128883               3.507091               0.000000
 MO|    137               0.129799               3.532022               0.000000
 MO|    138               0.133122               3.622440               0.000000
 MO|    139               0.136281               3.708384               0.000000
 MO|    140               0.137596               3.744187               0.000000
 MO|    141               0.141181               3.841737               0.000000
 MO|    142               0.147455               4.012468               0.000000
 MO|    143               0.151599               4.125229               0.000000
 MO|    144               0.157992               4.299189               0.000000
 MO|    145               0.158915               4.324304               0.000000
 MO|    146               0.165422               4.501359               0.000000
 MO|    147               0.166045               4.518319               0.000000
 MO|    148               0.166961               4.543245               0.000000
 MO|    149               0.173122               4.710885               0.000000
 MO|    150               0.176222               4.795243               0.000000
 MO|    151               0.180484               4.911219               0.000000
 MO|    152               0.184103               5.009710               0.000000
 MO|    153               0.184185               5.011920               0.000000
 MO|    154               0.184234               5.013259               0.000000
 MO|    155               0.198394               5.398588               0.000000
 MO|    156               0.200700               5.461334               0.000000
 MO|    157               0.202947               5.522476               0.000000
 MO|    158               0.208326               5.668849               0.000000
 MO|    159               0.210523               5.728627               0.000000
 MO|    160               0.211519               5.755732               0.000000
 MO|    161               0.212702               5.787924               0.000000
 MO|    162               0.217794               5.926487               0.000000
 MO|    163               0.232678               6.331500               0.000000
 MO|    164               0.235039               6.395745               0.000000
 MO|    165               0.235478               6.407674               0.000000
 MO|    166               0.239959               6.529629               0.000000
 MO|    167               0.245313               6.675300               0.000000
 MO|    168               0.252205               6.862850               0.000000
 MO|    169               0.255266               6.946138               0.000000
 MO|    170               0.256137               6.969829               0.000000
 MO|    171               0.267710               7.284750               0.000000
 MO|    172               0.270650               7.364772               0.000000
 MO|    173               0.271048               7.375596               0.000000
 MO|    174               0.274382               7.466324               0.000000
 MO|    175               0.283159               7.705161               0.000000
 MO|    176               0.283959               7.726930               0.000000
 MO|    177               0.289904               7.888687               0.000000
 MO|    178               0.292418               7.957106               0.000000
 MO|    179               0.302238               8.224315               0.000000
 MO|    180               0.303983               8.271788               0.000000
 MO|    181               0.308590               8.397161               0.000000
 MO|    182               0.312388               8.500500               0.000000
 MO|    183               0.324834               8.839170               0.000000
 MO|    184               0.327197               8.903488               0.000000
 MO|    185               0.336231               9.149310               0.000000
 MO|    186               0.345928               9.413190               0.000000
 MO|    187               0.348535               9.484129               0.000000
 MO|    188               0.355283               9.667737               0.000000
 MO|    189               0.357382               9.724870               0.000000
 MO|    190               0.363214               9.883564               0.000000
 MO|    191               0.370682              10.086760               0.000000
 MO|    192               0.380834              10.363007               0.000000
 MO| Sum:                                                             184.000000
 MO| E(Fermi):           -0.118731 a.u.         -3.230828 eV
 MO| Band gap:            0.096032 a.u.          2.613174 eV

     3 Broy./Diag. 0.40E+00    0.3     0.11964486     -1058.5256933719 -1.03E+01
  Decoupling Energy:                                               0.0003425653

 MO| EIGENVALUES AND OCCUPATION NUMBERS AFTER SCF STEP 3
 MO|
 MO|  Index      Eigenvalue [a.u.]        Eigenvalue [eV]             Occupation
 MO|      1              -9.828491            -267.446834               2.000000
 MO|      2              -9.828471            -267.446303               2.000000
 MO|      3              -9.828464            -267.446100               2.000000
 MO|      4              -9.828453            -267.445813               2.000000
 MO|      5              -9.825687            -267.370547               2.000000
 MO|      6              -9.825648            -267.369481               2.000000
 MO|      7              -9.825637            -267.369184               2.000000
 MO|      8              -9.825520            -267.365995               2.000000
 MO|      9              -9.825471            -267.364670               2.000000
 MO|     10              -9.825270            -267.359185               2.000000
 MO|     11              -9.825239            -267.358351               2.000000
 MO|     12              -9.825184            -267.356866               2.000000
 MO|     13              -9.825115            -267.354987               2.000000
 MO|     14              -9.825096            -267.354449               2.000000
 MO|     15              -9.813364            -267.035207               2.000000
 MO|     16              -9.813344            -267.034662               2.000000
 MO|     17              -9.812864            -267.021605               2.000000
 MO|     18              -9.812855            -267.021375               2.000000
 MO|     19              -9.812850            -267.021215               2.000000
 MO|     20              -9.812838            -267.020913               2.000000
 MO|     21              -9.812043            -266.999280               2.000000
 MO|     22              -9.812043            -266.999279               2.000000
 MO|     23              -9.812016            -266.998527               2.000000
 MO|     24              -9.812013            -266.998443               2.000000
 MO|     25              -9.808734            -266.909213               2.000000
 MO|     26              -9.808732            -266.909173               2.000000
 MO|     27              -9.808647            -266.906853               2.000000
 MO|     28              -9.808645            -266.906795               2.000000
 MO|     29              -0.870839             -23.696734               2.000000
 MO|     30              -0.844626             -22.983454               2.000000
 MO|     31              -0.836407             -22.759802               2.000000
 MO|     32              -0.809190             -22.019176               2.000000
 MO|     33              -0.795932             -21.658410               2.000000
 MO|     34              -0.785802             -21.382772               2.000000
 MO|     35              -0.766510             -20.857804               2.000000
 MO|     36              -0.750580             -20.424333               2.000000
 MO|     37              -0.732339             -19.927947               2.000000
 MO|     38              -0.720761             -19.612893               2.000000
 MO|     39              -0.706885             -19.235327               2.000000
 MO|     40              -0.706206             -19.216837               2.000000
 MO|     41              -0.689493             -18.762052               2.000000
 MO|     42              -0.652731             -17.761711               2.000000
 MO|     43              -0.644694             -17.543020               2.000000
 MO|     44              -0.622296             -16.933526               2.000000
 MO|     45              -0.614537             -16.722389               2.000000
 MO|     46              -0.609117             -16.574924               2.000000
 MO|     47              -0.594716             -16.183033               2.000000
 MO|     48              -0.568525             -15.470361               2.000000
 MO|     49              -0.543439             -14.787717               2.000000
 MO|     50              -0.542735             -14.768583               2.000000
 MO|     51              -0.539806             -14.688870               2.000000
 MO|     52              -0.520862             -14.173388               2.000000
 MO|     53              -0.511733             -13.924959               2.000000
 MO|     54              -0.496662             -13.514849               2.000000
 MO|     55              -0.479525             -13.048529               2.000000
 MO|     56              -0.459895             -12.514377               2.000000
 MO|     57              -0.457210             -12.441328               2.000000
 MO|     58              -0.453049             -12.328087               2.000000
 MO|     59              -0.452668             -12.317727               2.000000
 MO|     60              -0.444195             -12.087170               2.000000
 MO|     61              -0.440796             -11.994675               2.000000
 MO|     62              -0.433975             -11.809069               2.000000
 MO|     63              -0.431649             -11.745769               2.000000
 MO|     64              -0.417884             -11.371203               2.000000
 MO|     65              -0.409170             -11.134095               2.000000
 MO|     66              -0.408485             -11.115436               2.000000
 MO|     67              -0.405049             -11.021939               2.000000
 MO|     68              -0.403860             -10.989597               2.000000
 MO|     69              -0.391776             -10.660779               2.000000
 MO|     70              -0.388797             -10.579715               2.000000
 MO|     71              -0.383571             -10.437487               2.000000
 MO|     72              -0.379470             -10.325914               2.000000
 MO|     73              -0.377852             -10.281864               2.000000
 MO|     74              -0.367073              -9.988570               2.000000
 MO|     75              -0.355185              -9.665071               2.000000
 MO|     76              -0.353550              -9.620574               2.000000
 MO|     77              -0.350318              -9.532649               2.000000
 MO|     78              -0.337194              -9.175508               2.000000
 MO|     79              -0.335951              -9.141697               2.000000
 MO|     80              -0.333888              -9.085545               2.000000
 MO|     81              -0.327367              -8.908119               2.000000
 MO|     82              -0.326431              -8.882642               2.000000
 MO|     83              -0.303561              -8.260304               2.000000
 MO|     84              -0.293525              -7.987226               2.000000
 MO|     85              -0.289618              -7.880915               2.000000
 MO|     86              -0.285274              -7.762691               2.000000
 MO|     87              -0.267123              -7.268785               2.000000
 MO|     88              -0.260302              -7.083172               2.000000
 MO|     89              -0.254303              -6.919928               2.000000
 MO|     90              -0.227555              -6.192100               2.000000
 MO|     91              -0.217040              -5.905952               2.000000
 MO|     92              -0.196177              -5.338246               2.000000
 MO|     93              -0.100400              -2.732032               0.000000
 MO|     94              -0.097467              -2.652204               0.000000
 MO|     95              -0.089553              -2.436857               0.000000
 MO|     96              -0.069574              -1.893193               0.000000
 MO|     97              -0.050225              -1.366697               0.000000
 MO|     98              -0.046523              -1.265964               0.000000
 MO|     99              -0.025959              -0.706368               0.000000
 MO|    100              -0.023755              -0.646395               0.000000
 MO|    101              -0.022875              -0.622447               0.000000
 MO|    102              -0.018568              -0.505271               0.000000
 MO|    103              -0.017091              -0.465075               0.000000
 MO|    104              -0.011377              -0.309596               0.000000
 MO|    105              -0.003417              -0.092971               0.000000
 MO|    106               0.006253               0.170141               0.000000
 MO|    107               0.010695               0.291021               0.000000
 MO|    108               0.017879               0.486516               0.000000
 MO|    109               0.023097               0.628494               0.000000
 MO|    110               0.030352               0.825909               0.000000
 MO|    111               0.031229               0.849771               0.000000
 MO|    112               0.031952               0.869471               0.000000
 MO|    113               0.032596               0.886984               0.000000
 MO|    114               0.043564               1.185441               0.000000
 MO|    115               0.043868               1.193706               0.000000
 MO|    116               0.046180               1.256633               0.000000
 MO|    117               0.054445               1.481519               0.000000
 MO|    118               0.055440               1.508605               0.000000
 MO|    119               0.064928               1.766786               0.000000
 MO|    120               0.068020               1.850921               0.000000
 MO|    121               0.069937               1.903088               0.000000
 MO|    122               0.072977               1.985810               0.000000
 MO|    123               0.078466               2.135173               0.000000
 MO|    124               0.083535               2.273093               0.000000
 MO|    125               0.087200               2.372843               0.000000
 MO|    126               0.091629               2.493348               0.000000
 MO|    127               0.094127               2.561317               0.000000
 MO|    128               0.094919               2.582886               0.000000
 MO|    129               0.104422               2.841471               0.000000
 MO|    130               0.111178               3.025312               0.000000
 MO|    131               0.120176               3.270144               0.000000
 MO|    132               0.121226               3.298725               0.000000
 MO|    133               0.132422               3.603378               0.000000
 MO|    134               0.132467               3.604597               0.000000
 MO|    135               0.134535               3.660891               0.000000
 MO|    136               0.136087               3.703111               0.000000
 MO|    137               0.138024               3.755816               0.000000
 MO|    138               0.138973               3.781636               0.000000
 MO|    139               0.141243               3.843420               0.000000
 MO|    140               0.142043               3.865182               0.000000
 MO|    141               0.148164               4.031755               0.000000
 MO|    142               0.152737               4.156173               0.000000
 MO|    143               0.158712               4.318769               0.000000
 MO|    144               0.163438               4.447373               0.000000
 MO|    145               0.167057               4.545844               0.000000
 MO|    146               0.173863               4.731044               0.000000
 MO|    147               0.174204               4.740320               0.000000
 MO|    148               0.174696               4.753725               0.000000
 MO|    149               0.180473               4.910908               0.000000
 MO|    150               0.181965               4.951508               0.000000
 MO|    151               0.188592               5.131863               0.000000
 MO|    152               0.188773               5.136787               0.000000
 MO|    153               0.190387               5.180680               0.000000
 MO|    154               0.191640               5.214790               0.000000
 MO|    155               0.206628               5.622621               0.000000
 MO|    156               0.208964               5.686207               0.000000
 MO|    157               0.209945               5.712887               0.000000
 MO|    158               0.215196               5.855790               0.000000
 MO|    159               0.217643               5.922357               0.000000
 MO|    160               0.218880               5.956036               0.000000
 MO|    161               0.219001               5.959331               0.000000
 MO|    162               0.222417               6.052286               0.000000
 MO|    163               0.241300               6.566108               0.000000
 MO|    164               0.241573               6.573522               0.000000
 MO|    165               0.244224               6.645676               0.000000
 MO|    166               0.244851               6.662727               0.000000
 MO|    167               0.254270               6.919028               0.000000
 MO|    168               0.259244               7.054379               0.000000
 MO|    169               0.261130               7.105720               0.000000
 MO|    170               0.265436               7.222890               0.000000
 MO|    171               0.277060               7.539182               0.000000
 MO|    172               0.277731               7.557445               0.000000
 MO|    173               0.279672               7.610262               0.000000
 MO|    174               0.281973               7.672865               0.000000
 MO|    175               0.291068               7.920358               0.000000
 MO|    176               0.292729               7.965553               0.000000
 MO|    177               0.298969               8.135361               0.000000
 MO|    178               0.300517               8.177494               0.000000
 MO|    179               0.310747               8.455848               0.000000
 MO|    180               0.313032               8.518028               0.000000
 MO|    181               0.315358               8.581330               0.000000
 MO|    182               0.316407               8.609870               0.000000
 MO|    183               0.333632               9.078597               0.000000
 MO|    184               0.334053               9.090053               0.000000
 MO|    185               0.341934               9.304501               0.000000
 MO|    186               0.352683               9.597000               0.000000
 MO|    187               0.353012               9.605954               0.000000
 MO|    188               0.363731               9.897636               0.000000
 MO|    189               0.364071               9.906872               0.000000
 MO|    190               0.370950              10.094074               0.000000
 MO|    191               0.378122              10.289229               0.000000
 MO|    192               0.386223              10.509655               0.000000
 MO| Sum:                                                             184.000000
 MO| E(Fermi):           -0.110717 a.u.         -3.012768 eV
 MO| Band gap:            0.095777 a.u.          2.606214 eV

     4 Broy./Diag. 0.40E+00    0.3     0.01907369     -1062.7041700792 -4.18E+00
  Decoupling Energy:                                               0.0000542456

 MO| EIGENVALUES AND OCCUPATION NUMBERS AFTER SCF STEP 4
 MO|
 MO|  Index      Eigenvalue [a.u.]        Eigenvalue [eV]             Occupation
 MO|      1              -9.821348            -267.252478               2.000000
 MO|      2              -9.821323            -267.251778               2.000000
 MO|      3              -9.821317            -267.251627               2.000000
 MO|      4              -9.821303            -267.251251               2.000000
 MO|      5              -9.820181            -267.220718               2.000000
 MO|      6              -9.820108            -267.218735               2.000000
 MO|      7              -9.819966            -267.214856               2.000000
 MO|      8              -9.819837            -267.211351               2.000000
 MO|      9              -9.819796            -267.210234               2.000000
 MO|     10              -9.819716            -267.208071               2.000000
 MO|     11              -9.819519            -267.202689               2.000000
 MO|     12              -9.819469            -267.201327               2.000000
 MO|     13              -9.819359            -267.198356               2.000000
 MO|     14              -9.819349            -267.198064               2.000000
 MO|     15              -9.810710            -266.963009               2.000000
 MO|     16              -9.810691            -266.962476               2.000000
 MO|     17              -9.809898            -266.940910               2.000000
 MO|     18              -9.809890            -266.940677               2.000000
 MO|     19              -9.809887            -266.940613               2.000000
 MO|     20              -9.809876            -266.940296               2.000000
 MO|     21              -9.807820            -266.884356               2.000000
 MO|     22              -9.807820            -266.884343               2.000000
 MO|     23              -9.807793            -266.883608               2.000000
 MO|     24              -9.807789            -266.883508               2.000000
 MO|     25              -9.804672            -266.798681               2.000000
 MO|     26              -9.804670            -266.798640               2.000000
 MO|     27              -9.804585            -266.796326               2.000000
 MO|     28              -9.804583            -266.796270               2.000000
 MO|     29              -0.863080             -23.485596               2.000000
 MO|     30              -0.837069             -22.777808               2.000000
 MO|     31              -0.828756             -22.551600               2.000000
 MO|     32              -0.801744             -21.816564               2.000000
 MO|     33              -0.788427             -21.454190               2.000000
 MO|     34              -0.778222             -21.176496               2.000000
 MO|     35              -0.759210             -20.659145               2.000000
 MO|     36              -0.743108             -20.221006               2.000000
 MO|     37              -0.724736             -19.721081               2.000000
 MO|     38              -0.713035             -19.402664               2.000000
 MO|     39              -0.699316             -19.029356               2.000000
 MO|     40              -0.698741             -19.013700               2.000000
 MO|     41              -0.681988             -18.557839               2.000000
 MO|     42              -0.645281             -17.558987               2.000000
 MO|     43              -0.636927             -17.331655               2.000000
 MO|     44              -0.614448             -16.719984               2.000000
 MO|     45              -0.606794             -16.511692               2.000000
 MO|     46              -0.601375             -16.364251               2.000000
 MO|     47              -0.586994             -15.972911               2.000000
 MO|     48              -0.560920             -15.263404               2.000000
 MO|     49              -0.535567             -14.573532               2.000000
 MO|     50              -0.534656             -14.548742               2.000000
 MO|     51              -0.532032             -14.477324               2.000000
 MO|     52              -0.512813             -13.954344               2.000000
 MO|     53              -0.503912             -13.712148               2.000000
 MO|     54              -0.488525             -13.293453               2.000000
 MO|     55              -0.471499             -12.830133               2.000000
 MO|     56              -0.451755             -12.292890               2.000000
 MO|     57              -0.449162             -12.222327               2.000000
 MO|     58              -0.445239             -12.115581               2.000000
 MO|     59              -0.444984             -12.108628               2.000000
 MO|     60              -0.436353             -11.873775               2.000000
 MO|     61              -0.433377             -11.792780               2.000000
 MO|     62              -0.426143             -11.595933               2.000000
 MO|     63              -0.424216             -11.543502               2.000000
 MO|     64              -0.409713             -11.148849               2.000000
 MO|     65              -0.401305             -10.920076               2.000000
 MO|     66              -0.400735             -10.904543               2.000000
 MO|     67              -0.397213             -10.808719               2.000000
 MO|     68              -0.395919             -10.773504               2.000000
 MO|     69              -0.383871             -10.445674               2.000000
 MO|     70              -0.381300             -10.375704               2.000000
 MO|     71              -0.376349             -10.240988               2.000000
 MO|     72              -0.371588             -10.111430               2.000000
 MO|     73              -0.370200             -10.073657               2.000000
 MO|     74              -0.358871              -9.765370               2.000000
 MO|     75              -0.347218              -9.448274               2.000000
 MO|     76              -0.345467              -9.400647               2.000000
 MO|     77              -0.343310              -9.341945               2.000000
 MO|     78              -0.329309              -8.960961               2.000000
 MO|     79              -0.328714              -8.944753               2.000000
 MO|     80              -0.325608              -8.860250               2.000000
 MO|     81              -0.319603              -8.696849               2.000000
 MO|     82              -0.319333              -8.689492               2.000000
 MO|     83              -0.295670              -8.045591               2.000000
 MO|     84              -0.285617              -7.772024               2.000000
 MO|     85              -0.282669              -7.691818               2.000000
 MO|     86              -0.278170              -7.569390               2.000000
 MO|     87              -0.260036              -7.075941               2.000000
 MO|     88              -0.253162              -6.888886               2.000000
 MO|     89              -0.247175              -6.725965               2.000000
 MO|     90              -0.220567              -6.001922               2.000000
 MO|     91              -0.209983              -5.713928               2.000000
 MO|     92              -0.188804              -5.137629               2.000000
 MO|     93              -0.093075              -2.532687               0.000000
 MO|     94              -0.090524              -2.463272               0.000000
 MO|     95              -0.082612              -2.247983               0.000000
 MO|     96              -0.062454              -1.699463               0.000000
 MO|     97              -0.043108              -1.173028               0.000000
 MO|     98              -0.039765              -1.082056               0.000000
 MO|     99              -0.020255              -0.551179               0.000000
 MO|    100              -0.017337              -0.471753               0.000000
 MO|    101              -0.016737              -0.455450               0.000000
 MO|    102              -0.011762              -0.320070               0.000000
 MO|    103              -0.011018              -0.299809               0.000000
 MO|    104              -0.005254              -0.142973               0.000000
 MO|    105               0.002135               0.058104               0.000000
 MO|    106               0.011999               0.326502               0.000000
 MO|    107               0.016424               0.446911               0.000000
 MO|    108               0.023981               0.652560               0.000000
 MO|    109               0.029095               0.791713               0.000000
 MO|    110               0.036012               0.979925               0.000000
 MO|    111               0.037958               1.032882               0.000000
 MO|    112               0.038218               1.039976               0.000000
 MO|    113               0.038932               1.059401               0.000000
 MO|    114               0.049829               1.355923               0.000000
 MO|    115               0.050050               1.361919               0.000000
 MO|    116               0.052138               1.418749               0.000000
 MO|    117               0.060294               1.640688               0.000000
 MO|    118               0.061521               1.674068               0.000000
 MO|    119               0.070301               1.912979               0.000000
 MO|    120               0.074546               2.028500               0.000000
 MO|    121               0.077014               2.095645               0.000000
 MO|    122               0.079137               2.153427               0.000000
 MO|    123               0.084398               2.296573               0.000000
 MO|    124               0.090432               2.460772               0.000000
 MO|    125               0.092851               2.526591               0.000000
 MO|    126               0.097285               2.647261               0.000000
 MO|    127               0.101027               2.749072               0.000000
 MO|    128               0.101242               2.754922               0.000000
 MO|    129               0.110693               3.012101               0.000000
 MO|    130               0.117066               3.185537               0.000000
 MO|    131               0.126405               3.439648               0.000000
 MO|    132               0.127114               3.458956               0.000000
 MO|    133               0.139431               3.794105               0.000000
 MO|    134               0.139553               3.797423               0.000000
 MO|    135               0.141083               3.839052               0.000000
 MO|    136               0.142705               3.883201               0.000000
 MO|    137               0.145163               3.950093               0.000000
 MO|    138               0.145285               3.953396               0.000000
 MO|    139               0.147600               4.016404               0.000000
 MO|    140               0.148758               4.047898               0.000000
 MO|    141               0.154853               4.213754               0.000000
 MO|    142               0.158681               4.317921               0.000000
 MO|    143               0.165734               4.509849               0.000000
 MO|    144               0.169337               4.607897               0.000000
 MO|    145               0.174686               4.753435               0.000000
 MO|    146               0.181259               4.932302               0.000000
 MO|    147               0.181573               4.940865               0.000000
 MO|    148               0.182044               4.953664               0.000000
 MO|    149               0.187973               5.114997               0.000000
 MO|    150               0.188727               5.135516               0.000000
 MO|    151               0.194419               5.290409               0.000000
 MO|    152               0.195914               5.331090               0.000000
 MO|    153               0.197097               5.363289               0.000000
 MO|    154               0.198775               5.408953               0.000000
 MO|    155               0.213743               5.816241               0.000000
 MO|    156               0.216023               5.878272               0.000000
 MO|    157               0.216981               5.904352               0.000000
 MO|    158               0.222027               6.041670               0.000000
 MO|    159               0.224401               6.106260               0.000000
 MO|    160               0.225621               6.139456               0.000000
 MO|    161               0.226058               6.151357               0.000000
 MO|    162               0.228576               6.219862               0.000000
 MO|    163               0.248174               6.753146               0.000000
 MO|    164               0.248588               6.764427               0.000000
 MO|    165               0.251164               6.834524               0.000000
 MO|    166               0.251686               6.848727               0.000000
 MO|    167               0.261402               7.113121               0.000000
 MO|    168               0.265867               7.234605               0.000000
 MO|    169               0.267809               7.287465               0.000000
 MO|    170               0.272888               7.425667               0.000000
 MO|    171               0.283711               7.720171               0.000000
 MO|    172               0.284827               7.750532               0.000000
 MO|    173               0.286625               7.799471               0.000000
 MO|    174               0.288704               7.856022               0.000000
 MO|    175               0.297697               8.100738               0.000000
 MO|    176               0.300287               8.171214               0.000000
 MO|    177               0.306163               8.331121               0.000000
 MO|    178               0.307474               8.366784               0.000000
 MO|    179               0.317891               8.650250               0.000000
 MO|    180               0.320013               8.707993               0.000000
 MO|    181               0.321553               8.749890               0.000000
 MO|    182               0.322404               8.773048               0.000000
 MO|    183               0.340367               9.261851               0.000000
 MO|    184               0.341614               9.295794               0.000000
 MO|    185               0.348391               9.480212               0.000000
 MO|    186               0.358677               9.760093               0.000000
 MO|    187               0.359707               9.788127               0.000000
 MO|    188               0.370466              10.080884               0.000000
 MO|    189               0.371290              10.103316               0.000000
 MO|    190               0.377964              10.284930               0.000000
 MO|    191               0.385013              10.476750               0.000000
 MO|    192               0.392335              10.675969               0.000000
 MO| Sum:                                                             184.000000
 MO| E(Fermi):           -0.103391 a.u.         -2.813425 eV
 MO| Band gap:            0.095730 a.u.          2.604942 eV

     5 Broy./Diag. 0.40E+00    0.3     0.00805195     -1062.9338198289 -2.30E-01
  Decoupling Energy:                                              -0.0000309688

 MO| EIGENVALUES AND OCCUPATION NUMBERS AFTER SCF STEP 5
 MO|
 MO|  Index      Eigenvalue [a.u.]        Eigenvalue [eV]             Occupation
 MO|      1              -9.817166            -267.138674               2.000000
 MO|      2              -9.817143            -267.138055               2.000000
 MO|      3              -9.817137            -267.137874               2.000000
 MO|      4              -9.817124            -267.137538               2.000000
 MO|      5              -9.815872            -267.103473               2.000000
 MO|      6              -9.815727            -267.099525               2.000000
 MO|      7              -9.815398            -267.090558               2.000000
 MO|      8              -9.815267            -267.087009               2.000000
 MO|      9              -9.815232            -267.086059               2.000000
 MO|     10              -9.815230            -267.085999               2.000000
 MO|     11              -9.814941            -267.078139               2.000000
 MO|     12              -9.814901            -267.077048               2.000000
 MO|     13              -9.814782            -267.073809               2.000000
 MO|     14              -9.814772            -267.073531               2.000000
 MO|     15              -9.805258            -266.814642               2.000000
 MO|     16              -9.805249            -266.814402               2.000000
 MO|     17              -9.805242            -266.814209               2.000000
 MO|     18              -9.805241            -266.814170               2.000000
 MO|     19              -9.804962            -266.806574               2.000000
 MO|     20              -9.804946            -266.806156               2.000000
 MO|     21              -9.803286            -266.760968               2.000000
 MO|     22              -9.803285            -266.760954               2.000000
 MO|     23              -9.803258            -266.760218               2.000000
 MO|     24              -9.803254            -266.760119               2.000000
 MO|     25              -9.799689            -266.663086               2.000000
 MO|     26              -9.799687            -266.663045               2.000000
 MO|     27              -9.799602            -266.660731               2.000000
 MO|     28              -9.799600            -266.660673               2.000000
 MO|     29              -0.857214             -23.325986               2.000000
 MO|     30              -0.831265             -22.619867               2.000000
 MO|     31              -0.822864             -22.391267               2.000000
 MO|     32              -0.795921             -21.658118               2.000000
 MO|     33              -0.782673             -21.297619               2.000000
 MO|     34              -0.772348             -21.016647               2.000000
 MO|     35              -0.753376             -20.500404               2.000000
 MO|     36              -0.737364             -20.064688               2.000000
 MO|     37              -0.719031             -19.565839               2.000000
 MO|     38              -0.707249             -19.245224               2.000000
 MO|     39              -0.693591             -18.873571               2.000000
 MO|     40              -0.692991             -18.857256               2.000000
 MO|     41              -0.676267             -18.402167               2.000000
 MO|     42              -0.639561             -17.403335               2.000000
 MO|     43              -0.631216             -17.176250               2.000000
 MO|     44              -0.608802             -16.566332               2.000000
 MO|     45              -0.601048             -16.355334               2.000000
 MO|     46              -0.595674             -16.209113               2.000000
 MO|     47              -0.581334             -15.818910               2.000000
 MO|     48              -0.555213             -15.108113               2.000000
 MO|     49              -0.530034             -14.422965               2.000000
 MO|     50              -0.528965             -14.393865               2.000000
 MO|     51              -0.526397             -14.324002               2.000000
 MO|     52              -0.507046             -13.797418               2.000000
 MO|     53              -0.498240             -13.557793               2.000000
 MO|     54              -0.482867             -13.139477               2.000000
 MO|     55              -0.465893             -12.677581               2.000000
 MO|     56              -0.446141             -12.140127               2.000000
 MO|     57              -0.443410             -12.065797               2.000000
 MO|     58              -0.439579             -11.961541               2.000000
 MO|     59              -0.439407             -11.956866               2.000000
 MO|     60              -0.430842             -11.723814               2.000000
 MO|     61              -0.427788             -11.640709               2.000000
 MO|     62              -0.420494             -11.442226               2.000000
 MO|     63              -0.418720             -11.393954               2.000000
 MO|     64              -0.403985             -10.993002               2.000000
 MO|     65              -0.395732             -10.768426               2.000000
 MO|     66              -0.395098             -10.751172               2.000000
 MO|     67              -0.391632             -10.656860               2.000000
 MO|     68              -0.390132             -10.616027               2.000000
 MO|     69              -0.378214             -10.291722               2.000000
 MO|     70              -0.375677             -10.222697               2.000000
 MO|     71              -0.370626             -10.085248               2.000000
 MO|     72              -0.365933              -9.957530               2.000000
 MO|     73              -0.364536              -9.919527               2.000000
 MO|     74              -0.353278              -9.613193               2.000000
 MO|     75              -0.341803              -9.300933               2.000000
 MO|     76              -0.339884              -9.248715               2.000000
 MO|     77              -0.337714              -9.189671               2.000000
 MO|     78              -0.323698              -8.808262               2.000000
 MO|     79              -0.323125              -8.792666               2.000000
 MO|     80              -0.319895              -8.704781               2.000000
 MO|     81              -0.313991              -8.544128               2.000000
 MO|     82              -0.313666              -8.535293               2.000000
 MO|     83              -0.290102              -7.894073               2.000000
 MO|     84              -0.279913              -7.616810               2.000000
 MO|     85              -0.277122              -7.540865               2.000000
 MO|     86              -0.272559              -7.416705               2.000000
 MO|     87              -0.254488              -6.924981               2.000000
 MO|     88              -0.247557              -6.736364               2.000000
 MO|     89              -0.241582              -6.573770               2.000000
 MO|     90              -0.214945              -5.848955               2.000000
 MO|     91              -0.204433              -5.562906               2.000000
 MO|     92              -0.183284              -4.987403               2.000000
 MO|     93              -0.087612              -2.384042               0.000000
 MO|     94              -0.085203              -2.318497               0.000000
 MO|     95              -0.077097              -2.097904               0.000000
 MO|     96              -0.056943              -1.549491               0.000000
 MO|     97              -0.037579              -1.022575               0.000000
 MO|     98              -0.034678              -0.943638               0.000000
 MO|     99              -0.016222              -0.441415               0.000000
 MO|    100              -0.013390              -0.364362               0.000000
 MO|    101              -0.011253              -0.306207               0.000000
 MO|    102              -0.006719              -0.182827               0.000000
 MO|    103              -0.006425              -0.174832               0.000000
 MO|    104              -0.000889              -0.024192               0.000000
 MO|    105               0.006150               0.167358               0.000000
 MO|    106               0.016252               0.442247               0.000000
 MO|    107               0.020466               0.556897               0.000000
 MO|    108               0.028825               0.784365               0.000000
 MO|    109               0.033772               0.918992               0.000000
 MO|    110               0.040024               1.089109               0.000000
 MO|    111               0.043344               1.179453               0.000000
 MO|    112               0.043617               1.186876               0.000000
 MO|    113               0.044154               1.201496               0.000000
 MO|    114               0.055078               1.498751               0.000000
 MO|    115               0.055173               1.501338               0.000000
 MO|    116               0.056355               1.533509               0.000000
 MO|    117               0.064672               1.759825               0.000000
 MO|    118               0.066682               1.814497               0.000000
 MO|    119               0.074806               2.035571               0.000000
 MO|    120               0.079692               2.168541               0.000000
 MO|    121               0.082724               2.251035               0.000000
 MO|    122               0.083722               2.278199               0.000000
 MO|    123               0.088625               2.411608               0.000000
 MO|    124               0.096119               2.615542               0.000000
 MO|    125               0.097522               2.653700               0.000000
 MO|    126               0.102071               2.777495               0.000000
 MO|    127               0.106313               2.892913               0.000000
 MO|    128               0.106642               2.901869               0.000000
 MO|    129               0.115070               3.131227               0.000000
 MO|    130               0.121537               3.307196               0.000000
 MO|    131               0.131718               3.584226               0.000000
 MO|    132               0.132359               3.601659               0.000000
 MO|    133               0.144430               3.930135               0.000000
 MO|    134               0.146264               3.980043               0.000000
 MO|    135               0.146831               3.995471               0.000000
 MO|    136               0.148052               4.028698               0.000000
 MO|    137               0.149665               4.072600               0.000000
 MO|    138               0.150280               4.089335               0.000000
 MO|    139               0.152660               4.154086               0.000000
 MO|    140               0.155020               4.218297               0.000000
 MO|    141               0.159654               4.344399               0.000000
 MO|    142               0.163337               4.444624               0.000000
 MO|    143               0.170907               4.650625               0.000000
 MO|    144               0.174272               4.742180               0.000000
 MO|    145               0.180231               4.904324               0.000000
 MO|    146               0.186581               5.077140               0.000000
 MO|    147               0.186953               5.087239               0.000000
 MO|    148               0.187624               5.105521               0.000000
 MO|    149               0.193525               5.266087               0.000000
 MO|    150               0.194124               5.282380               0.000000
 MO|    151               0.198879               5.411759               0.000000
 MO|    152               0.201388               5.480033               0.000000
 MO|    153               0.202291               5.504607               0.000000
 MO|    154               0.204233               5.557467               0.000000
 MO|    155               0.218732               5.951987               0.000000
 MO|    156               0.221414               6.024980               0.000000
 MO|    157               0.222141               6.044767               0.000000
 MO|    158               0.227160               6.181350               0.000000
 MO|    159               0.229309               6.239817               0.000000
 MO|    160               0.230780               6.279837               0.000000
 MO|    161               0.231559               6.301048               0.000000
 MO|    162               0.233799               6.362001               0.000000
 MO|    163               0.253385               6.894966               0.000000
 MO|    164               0.253686               6.903152               0.000000
 MO|    165               0.256246               6.972797               0.000000
 MO|    166               0.256988               6.993012               0.000000
 MO|    167               0.266566               7.253619               0.000000
 MO|    168               0.271037               7.375289               0.000000
 MO|    169               0.272876               7.425336               0.000000
 MO|    170               0.278214               7.570588               0.000000
 MO|    171               0.288976               7.863449               0.000000
 MO|    172               0.289982               7.890821               0.000000
 MO|    173               0.291791               7.940039               0.000000
 MO|    174               0.293498               7.986493               0.000000
 MO|    175               0.302753               8.238340               0.000000
 MO|    176               0.305470               8.312268               0.000000
 MO|    177               0.311361               8.472568               0.000000
 MO|    178               0.312817               8.512196               0.000000
 MO|    179               0.323354               8.798914               0.000000
 MO|    180               0.325273               8.851125               0.000000
 MO|    181               0.326251               8.877740               0.000000
 MO|    182               0.327472               8.910970               0.000000
 MO|    183               0.345214               9.393751               0.000000
 MO|    184               0.346903               9.439700               0.000000
 MO|    185               0.353409               9.616740               0.000000
 MO|    186               0.363798               9.899438               0.000000
 MO|    187               0.364692               9.923768               0.000000
 MO|    188               0.375316              10.212858               0.000000
 MO|    189               0.376764              10.252257               0.000000
 MO|    190               0.383093              10.424491               0.000000
 MO|    191               0.390067              10.614261               0.000000
 MO|    192               0.397207              10.808554               0.000000
 MO| Sum:                                                             184.000000
 MO| E(Fermi):           -0.097929 a.u.         -2.664781 eV
 MO| Band gap:            0.095672 a.u.          2.603361 eV

     6 Broy./Diag. 0.40E+00    0.3     0.00256498     -1062.8505317935  8.33E-02
  Decoupling Energy:                                              -0.0000486918

 MO| EIGENVALUES AND OCCUPATION NUMBERS AFTER SCF STEP 6
 MO|
 MO|  Index      Eigenvalue [a.u.]        Eigenvalue [eV]             Occupation
 MO|      1              -9.810531            -266.958116               2.000000
 MO|      2              -9.810509            -266.957516               2.000000
 MO|      3              -9.810502            -266.957329               2.000000
 MO|      4              -9.810490            -266.957004               2.000000
 MO|      5              -9.808981            -266.915951               2.000000
 MO|      6              -9.808861            -266.912689               2.000000
 MO|      7              -9.808631            -266.906417               2.000000
 MO|      8              -9.808502            -266.902926               2.000000
 MO|      9              -9.808467            -266.901961               2.000000
 MO|     10              -9.808436            -266.901125               2.000000
 MO|     11              -9.808227            -266.895432               2.000000
 MO|     12              -9.808179            -266.894112               2.000000
 MO|     13              -9.808071            -266.891172               2.000000
 MO|     14              -9.808057            -266.890809               2.000000
 MO|     15              -9.799415            -266.655641               2.000000
 MO|     16              -9.799414            -266.655615               2.000000
 MO|     17              -9.799406            -266.655408               2.000000
 MO|     18              -9.799400            -266.655240               2.000000
 MO|     19              -9.798562            -266.632432               2.000000
 MO|     20              -9.798544            -266.631953               2.000000
 MO|     21              -9.797360            -266.599731               2.000000
 MO|     22              -9.797360            -266.599716               2.000000
 MO|     23              -9.797333            -266.598980               2.000000
 MO|     24              -9.797329            -266.598881               2.000000
 MO|     25              -9.793637            -266.498407               2.000000
 MO|     26              -9.793635            -266.498365               2.000000
 MO|     27              -9.793550            -266.496054               2.000000
 MO|     28              -9.793548            -266.495996               2.000000
 MO|     29              -0.849818             -23.124712               2.000000
 MO|     30              -0.824101             -22.424915               2.000000
 MO|     31              -0.815616             -22.194052               2.000000
 MO|     32              -0.788863             -21.466044               2.000000
 MO|     33              -0.775616             -21.105585               2.000000
 MO|     34              -0.765224             -20.822803               2.000000
 MO|     35              -0.746501             -20.313332               2.000000
 MO|     36              -0.730367             -19.874297               2.000000
 MO|     37              -0.711925             -19.372468               2.000000
 MO|     38              -0.700240             -19.054494               2.000000
 MO|     39              -0.686680             -18.685501               2.000000
 MO|     40              -0.686044             -18.668214               2.000000
 MO|     41              -0.669287             -18.212227               2.000000
 MO|     42              -0.632846             -17.220620               2.000000
 MO|     43              -0.624351             -16.989451               2.000000
 MO|     44              -0.601866             -16.377617               2.000000
 MO|     45              -0.594068             -16.165414               2.000000
 MO|     46              -0.588698             -16.019278               2.000000
 MO|     47              -0.574523             -15.633565               2.000000
 MO|     48              -0.548376             -14.922067               2.000000
 MO|     49              -0.523272             -14.238949               2.000000
 MO|     50              -0.522223             -14.210415               2.000000
 MO|     51              -0.519652             -14.140459               2.000000
 MO|     52              -0.500185             -13.610734               2.000000
 MO|     53              -0.491419             -13.372181               2.000000
 MO|     54              -0.476237             -12.959066               2.000000
 MO|     55              -0.459312             -12.498502               2.000000
 MO|     56              -0.439566             -11.961203               2.000000
 MO|     57              -0.436714             -11.883585               2.000000
 MO|     58              -0.432893             -11.779620               2.000000
 MO|     59              -0.432737             -11.775378               2.000000
 MO|     60              -0.424161             -11.542001               2.000000
 MO|     61              -0.420984             -11.455564               2.000000
 MO|     62              -0.413890             -11.262531               2.000000
 MO|     63              -0.412171             -11.215737               2.000000
 MO|     64              -0.397242             -10.809491               2.000000
 MO|     65              -0.389117             -10.588407               2.000000
 MO|     66              -0.388303             -10.566258               2.000000
 MO|     67              -0.385008             -10.476597               2.000000
 MO|     68              -0.383154             -10.426148               2.000000
 MO|     69              -0.371397             -10.106223               2.000000
 MO|     70              -0.368802             -10.035615               2.000000
 MO|     71              -0.363583              -9.893606               2.000000
 MO|     72              -0.359228              -9.775077               2.000000
 MO|     73              -0.357642              -9.731947               2.000000
 MO|     74              -0.346891              -9.439383               2.000000
 MO|     75              -0.335468              -9.128548               2.000000
 MO|     76              -0.333460              -9.073898               2.000000
 MO|     77              -0.330911              -9.004542               2.000000
 MO|     78              -0.316989              -8.625710               2.000000
 MO|     79              -0.316419              -8.610205               2.000000
 MO|     80              -0.313309              -8.525562               2.000000
 MO|     81              -0.307315              -8.362471               2.000000
 MO|     82              -0.306732              -8.346600               2.000000
 MO|     83              -0.283169              -7.705409               2.000000
 MO|     84              -0.273024              -7.429364               2.000000
 MO|     85              -0.270346              -7.356490               2.000000
 MO|     86              -0.265637              -7.228347               2.000000
 MO|     87              -0.247759              -6.741874               2.000000
 MO|     88              -0.240683              -6.549309               2.000000
 MO|     89              -0.234720              -6.387044               2.000000
 MO|     90              -0.208067              -5.661780               2.000000
 MO|     91              -0.197800              -5.382416               2.000000
 MO|     92              -0.176429              -4.800869               2.000000
 MO|     93              -0.080766              -2.197751               0.000000
 MO|     94              -0.078747              -2.142805               0.000000
 MO|     95              -0.070336              -1.913948               0.000000
 MO|     96              -0.050190              -1.365736               0.000000
 MO|     97              -0.030783              -0.837660               0.000000
 MO|     98              -0.028385              -0.772406               0.000000
 MO|     99              -0.010840              -0.294984               0.000000
 MO|    100              -0.008104              -0.220518               0.000000
 MO|    101              -0.004579              -0.124593               0.000000
 MO|    102              -0.000803              -0.021853               0.000000
 MO|    103               0.000132               0.003590               0.000000
 MO|    104               0.005393               0.146742               0.000000
 MO|    105               0.011303               0.307578               0.000000
 MO|    106               0.022109               0.601605               0.000000
 MO|    107               0.025794               0.701881               0.000000
 MO|    108               0.035705               0.971579               0.000000
 MO|    109               0.040010               1.088718               0.000000
 MO|    110               0.045294               1.232502               0.000000
 MO|    111               0.050520               1.374710               0.000000
 MO|    112               0.050621               1.377465               0.000000
 MO|    113               0.050737               1.380623               0.000000
 MO|    114               0.061593               1.676025               0.000000
 MO|    115               0.061816               1.682111               0.000000
 MO|    116               0.062226               1.693256               0.000000
 MO|    117               0.070445               1.916904               0.000000
 MO|    118               0.073206               1.992045               0.000000
 MO|    119               0.080632               2.194100               0.000000
 MO|    120               0.086142               2.344056               0.000000
 MO|    121               0.088559               2.409819               0.000000
 MO|    122               0.089249               2.428591               0.000000
 MO|    123               0.094198               2.563248               0.000000
 MO|    124               0.103831               2.825394               0.000000
 MO|    125               0.103934               2.828191               0.000000
 MO|    126               0.108457               2.951259               0.000000
 MO|    127               0.111817               3.042705               0.000000
 MO|    128               0.113143               3.078775               0.000000
 MO|    129               0.120698               3.284355               0.000000
 MO|    130               0.127114               3.458944               0.000000
 MO|    131               0.137967               3.754265               0.000000
 MO|    132               0.140367               3.819577               0.000000
 MO|    133               0.150540               4.096388               0.000000
 MO|    134               0.152239               4.142646               0.000000
 MO|    135               0.154794               4.212170               0.000000
 MO|    136               0.155271               4.225134               0.000000
 MO|    137               0.155483               4.230905               0.000000
 MO|    138               0.156442               4.256994               0.000000
 MO|    139               0.158418               4.310771               0.000000
 MO|    140               0.162104               4.411072               0.000000
 MO|    141               0.165695               4.508779               0.000000
 MO|    142               0.169364               4.608626               0.000000
 MO|    143               0.178503               4.857316               0.000000
 MO|    144               0.180936               4.923509               0.000000
 MO|    145               0.187079               5.090666               0.000000
 MO|    146               0.193170               5.256422               0.000000
 MO|    147               0.193612               5.268451               0.000000
 MO|    148               0.194555               5.294099               0.000000
 MO|    149               0.201024               5.470130               0.000000
 MO|    150               0.201976               5.496042               0.000000
 MO|    151               0.204868               5.574755               0.000000
 MO|    152               0.208208               5.665619               0.000000
 MO|    153               0.209261               5.694291               0.000000
 MO|    154               0.211036               5.742589               0.000000
 MO|    155               0.224836               6.118096               0.000000
 MO|    156               0.227902               6.201535               0.000000
 MO|    157               0.229317               6.240021               0.000000
 MO|    158               0.233747               6.360582               0.000000
 MO|    159               0.236298               6.429990               0.000000
 MO|    160               0.236873               6.445636               0.000000
 MO|    161               0.238578               6.492031               0.000000
 MO|    162               0.240538               6.545378               0.000000
 MO|    163               0.259382               7.058132               0.000000
 MO|    164               0.259916               7.072662               0.000000
 MO|    165               0.262629               7.146500               0.000000
 MO|    166               0.263838               7.179401               0.000000
 MO|    167               0.272685               7.420135               0.000000
 MO|    168               0.277730               7.557417               0.000000
 MO|    169               0.279882               7.615987               0.000000
 MO|    170               0.284740               7.748160               0.000000
 MO|    171               0.296072               8.056525               0.000000
 MO|    172               0.296200               8.060022               0.000000
 MO|    173               0.298051               8.110373               0.000000
 MO|    174               0.299831               8.158821               0.000000
 MO|    175               0.309101               8.411061               0.000000
 MO|    176               0.312266               8.497195               0.000000
 MO|    177               0.317317               8.634644               0.000000
 MO|    178               0.319333               8.689498               0.000000
 MO|    179               0.330248               8.986494               0.000000
 MO|    180               0.331634               9.024224               0.000000
 MO|    181               0.332414               9.045451               0.000000
 MO|    182               0.334371               9.098700               0.000000
 MO|    183               0.351152               9.555331               0.000000
 MO|    184               0.353493               9.619033               0.000000
 MO|    185               0.359951               9.794765               0.000000
 MO|    186               0.370721              10.087841               0.000000
 MO|    187               0.371492              10.108817               0.000000
 MO|    188               0.381418              10.378910               0.000000
 MO|    189               0.383502              10.435632               0.000000
 MO|    190               0.389307              10.593592               0.000000
 MO|    191               0.396281              10.783359               0.000000
 MO|    192               0.403396              10.976966               0.000000
 MO| Sum:                                                             184.000000
 MO| E(Fermi):           -0.091083 a.u.         -2.478501 eV
 MO| Band gap:            0.095663 a.u.          2.603117 eV

     7 Broy./Diag. 0.40E+00    0.3     0.00350301     -1062.8417669596  8.76E-03
  Decoupling Energy:                                              -0.0000257757

 MO| EIGENVALUES AND OCCUPATION NUMBERS AFTER SCF STEP 7
 MO|
 MO|  Index      Eigenvalue [a.u.]        Eigenvalue [eV]             Occupation
 MO|      1              -9.803510            -266.767080               2.000000
 MO|      2              -9.803490            -266.766525               2.000000
 MO|      3              -9.803482            -266.766322               2.000000
 MO|      4              -9.803471            -266.766026               2.000000
 MO|      5              -9.801221            -266.704780               2.000000
 MO|      6              -9.801194            -266.704062               2.000000
 MO|      7              -9.801135            -266.702449               2.000000
 MO|      8              -9.801071            -266.700702               2.000000
 MO|      9              -9.801025            -266.699444               2.000000
 MO|     10              -9.800850            -266.694687               2.000000
 MO|     11              -9.800744            -266.691803               2.000000
 MO|     12              -9.800741            -266.691719               2.000000
 MO|     13              -9.800699            -266.690591               2.000000
 MO|     14              -9.800664            -266.689640               2.000000
 MO|     15              -9.792809            -266.475872               2.000000
 MO|     16              -9.792788            -266.475309               2.000000
 MO|     17              -9.792774            -266.474930               2.000000
 MO|     18              -9.792765            -266.474697               2.000000
 MO|     19              -9.792666            -266.471987               2.000000
 MO|     20              -9.792655            -266.471697               2.000000
 MO|     21              -9.790977            -266.426028               2.000000
 MO|     22              -9.790976            -266.426015               2.000000
 MO|     23              -9.790949            -266.425276               2.000000
 MO|     24              -9.790946            -266.425179               2.000000
 MO|     25              -9.786860            -266.313995               2.000000
 MO|     26              -9.786858            -266.313954               2.000000
 MO|     27              -9.786773            -266.311645               2.000000
 MO|     28              -9.786771            -266.311587               2.000000
 MO|     29              -0.842599             -22.928285               2.000000
 MO|     30              -0.817205             -22.237282               2.000000
 MO|     31              -0.808529             -22.001190               2.000000
 MO|     32              -0.781984             -21.278879               2.000000
 MO|     33              -0.768779             -20.919542               2.000000
 MO|     34              -0.758224             -20.632328               2.000000
 MO|     35              -0.739851             -20.132364               2.000000
 MO|     36              -0.723494             -19.687266               2.000000
 MO|     37              -0.704910             -19.181574               2.000000
 MO|     38              -0.693370             -18.867570               2.000000
 MO|     39              -0.679916             -18.501454               2.000000
 MO|     40              -0.679218             -18.482451               2.000000
 MO|     41              -0.662401             -18.024856               2.000000
 MO|     42              -0.626229             -17.040558               2.000000
 MO|     43              -0.617569             -16.804909               2.000000
 MO|     44              -0.595011             -16.191063               2.000000
 MO|     45              -0.587206             -15.978699               2.000000
 MO|     46              -0.581827             -15.832306               2.000000
 MO|     47              -0.567804             -15.450739               2.000000
 MO|     48              -0.541665             -14.739466               2.000000
 MO|     49              -0.516556             -14.056210               2.000000
 MO|     50              -0.515541             -14.028591               2.000000
 MO|     51              -0.513013             -13.959792               2.000000
 MO|     52              -0.493471             -13.428041               2.000000
 MO|     53              -0.484713             -13.189724               2.000000
 MO|     54              -0.469653             -12.779904               2.000000
 MO|     55              -0.452827             -12.322040               2.000000
 MO|     56              -0.433088             -11.784937               2.000000
 MO|     57              -0.430107             -11.703802               2.000000
 MO|     58              -0.426497             -11.605587               2.000000
 MO|     59              -0.426023             -11.592684               2.000000
 MO|     60              -0.417504             -11.360868               2.000000
 MO|     61              -0.414364             -11.275422               2.000000
 MO|     62              -0.407397             -11.085845               2.000000
 MO|     63              -0.405804             -11.042478               2.000000
 MO|     64              -0.390648             -10.630074               2.000000
 MO|     65              -0.382561             -10.410024               2.000000
 MO|     66              -0.381592             -10.383645               2.000000
 MO|     67              -0.378474             -10.298790               2.000000
 MO|     68              -0.376297             -10.239557               2.000000
 MO|     69              -0.364618              -9.921750               2.000000
 MO|     70              -0.362009              -9.850757               2.000000
 MO|     71              -0.356681              -9.705789               2.000000
 MO|     72              -0.352613              -9.595090               2.000000
 MO|     73              -0.350897              -9.548391               2.000000
 MO|     74              -0.340604              -9.268313               2.000000
 MO|     75              -0.329159              -8.956880               2.000000
 MO|     76              -0.327074              -8.900123               2.000000
 MO|     77              -0.324246              -8.823188               2.000000
 MO|     78              -0.310351              -8.445089               2.000000
 MO|     79              -0.309806              -8.430246               2.000000
 MO|     80              -0.306809              -8.348699               2.000000
 MO|     81              -0.300767              -8.184273               2.000000
 MO|     82              -0.299880              -8.160155               2.000000
 MO|     83              -0.276269              -7.517662               2.000000
 MO|     84              -0.266211              -7.243962               2.000000
 MO|     85              -0.263670              -7.174825               2.000000
 MO|     86              -0.258804              -7.042429               2.000000
 MO|     87              -0.241095              -6.560528               2.000000
 MO|     88              -0.233951              -6.366119               2.000000
 MO|     89              -0.227996              -6.204100               2.000000
 MO|     90              -0.201261              -5.476590               2.000000
 MO|     91              -0.191209              -5.203051               2.000000
 MO|     92              -0.169614              -4.615439               2.000000
 MO|     93              -0.073927              -2.011643               0.000000
 MO|     94              -0.072200              -1.964670               0.000000
 MO|     95              -0.063597              -1.730566               0.000000
 MO|     96              -0.043584              -1.185982               0.000000
 MO|     97              -0.024074              -0.655080               0.000000
 MO|     98              -0.021705              -0.590622               0.000000
 MO|     99              -0.002409              -0.065541               0.000000
 MO|    100               0.000722               0.019643               0.000000
 MO|    101               0.002004               0.054527               0.000000
 MO|    102               0.006784               0.184608               0.000000
 MO|    103               0.007197               0.195846               0.000000
 MO|    104               0.014029               0.381740               0.000000
 MO|    105               0.019704               0.536163               0.000000
 MO|    106               0.030587               0.832327               0.000000
 MO|    107               0.034868               0.948811               0.000000
 MO|    108               0.043467               1.182810               0.000000
 MO|    109               0.048240               1.312688               0.000000
 MO|    110               0.054788               1.490864               0.000000
 MO|    111               0.057897               1.575465               0.000000
 MO|    112               0.058197               1.583620               0.000000
 MO|    113               0.058306               1.586578               0.000000
 MO|    114               0.067865               1.846704               0.000000
 MO|    115               0.069726               1.897344               0.000000
 MO|    116               0.070708               1.924074               0.000000
 MO|    117               0.078784               2.143832               0.000000
 MO|    118               0.079705               2.168872               0.000000
 MO|    119               0.087450               2.379633               0.000000
 MO|    120               0.092913               2.528294               0.000000
 MO|    121               0.093839               2.553497               0.000000
 MO|    122               0.097555               2.654597               0.000000
 MO|    123               0.102002               2.775628               0.000000
 MO|    124               0.110934               3.018656               0.000000
 MO|    125               0.111323               3.029258               0.000000
 MO|    126               0.115923               3.154438               0.000000
 MO|    127               0.117702               3.202826               0.000000
 MO|    128               0.119289               3.246008               0.000000
 MO|    129               0.128297               3.491139               0.000000
 MO|    130               0.135478               3.686551               0.000000
 MO|    131               0.146105               3.975719               0.000000
 MO|    132               0.147367               4.010066               0.000000
 MO|    133               0.158216               4.305277               0.000000
 MO|    134               0.158639               4.316786               0.000000
 MO|    135               0.161703               4.400166               0.000000
 MO|    136               0.163574               4.451071               0.000000
 MO|    137               0.163576               4.451140               0.000000
 MO|    138               0.164382               4.473075               0.000000
 MO|    139               0.164908               4.487373               0.000000
 MO|    140               0.171952               4.679055               0.000000
 MO|    141               0.173456               4.719971               0.000000
 MO|    142               0.176651               4.806916               0.000000
 MO|    143               0.188001               5.115758               0.000000
 MO|    144               0.188915               5.140645               0.000000
 MO|    145               0.195432               5.317982               0.000000
 MO|    146               0.201522               5.483706               0.000000
 MO|    147               0.202677               5.515132               0.000000
 MO|    148               0.202818               5.518958               0.000000
 MO|    149               0.209909               5.711924               0.000000
 MO|    150               0.211728               5.761416               0.000000
 MO|    151               0.213399               5.806875               0.000000
 MO|    152               0.216507               5.891444               0.000000
 MO|    153               0.218807               5.954044               0.000000
 MO|    154               0.219147               5.963283               0.000000
 MO|    155               0.232118               6.316253               0.000000
 MO|    156               0.234968               6.393793               0.000000
 MO|    157               0.238444               6.488401               0.000000
 MO|    158               0.242139               6.588945               0.000000
 MO|    159               0.244630               6.656714               0.000000
 MO|    160               0.245108               6.669729               0.000000
 MO|    161               0.247303               6.729469               0.000000
 MO|    162               0.247881               6.745180               0.000000
 MO|    163               0.267794               7.287045               0.000000
 MO|    164               0.269361               7.329686               0.000000
 MO|    165               0.270900               7.371560               0.000000
 MO|    166               0.273227               7.434894               0.000000
 MO|    167               0.281231               7.652685               0.000000
 MO|    168               0.286737               7.802517               0.000000
 MO|    169               0.290003               7.891391               0.000000
 MO|    170               0.292175               7.950476               0.000000
 MO|    171               0.303945               8.270765               0.000000
 MO|    172               0.304454               8.284607               0.000000
 MO|    173               0.305493               8.312887               0.000000
 MO|    174               0.309204               8.413857               0.000000
 MO|    175               0.317704               8.645153               0.000000
 MO|    176               0.320592               8.723758               0.000000
 MO|    177               0.326561               8.886177               0.000000
 MO|    178               0.327092               8.900624               0.000000
 MO|    179               0.338893               9.221757               0.000000
 MO|    180               0.339215               9.230508               0.000000
 MO|    181               0.339222               9.230700               0.000000
 MO|    182               0.343183               9.338488               0.000000
 MO|    183               0.359242               9.775481               0.000000
 MO|    184               0.361264               9.830485               0.000000
 MO|    185               0.368009              10.014028               0.000000
 MO|    186               0.379983              10.339852               0.000000
 MO|    187               0.381367              10.377518               0.000000
 MO|    188               0.389732              10.605147               0.000000
 MO|    189               0.391501              10.653290               0.000000
 MO|    190               0.397551              10.817899               0.000000
 MO|    191               0.405390              11.031216               0.000000
 MO|    192               0.411331              11.192881               0.000000
 MO| Sum:                                                             184.000000
 MO| E(Fermi):           -0.084245 a.u.         -2.292415 eV
 MO| Band gap:            0.095688 a.u.          2.603796 eV

     8 Broy./Diag. 0.40E+00    0.3     0.00372786     -1062.9522626538 -1.10E-01
  Decoupling Energy:                                              -0.0000089808

 MO| EIGENVALUES AND OCCUPATION NUMBERS AFTER SCF STEP 8
 MO|
 MO|  Index      Eigenvalue [a.u.]        Eigenvalue [eV]             Occupation
 MO|      1              -9.799433            -266.656123               2.000000
 MO|      2              -9.799412            -266.655571               2.000000
 MO|      3              -9.799405            -266.655365               2.000000
 MO|      4              -9.799394            -266.655072               2.000000
 MO|      5              -9.797117            -266.593120               2.000000
 MO|      6              -9.797093            -266.592462               2.000000
 MO|      7              -9.797018            -266.590427               2.000000
 MO|      8              -9.796980            -266.589371               2.000000
 MO|      9              -9.796950            -266.588556               2.000000
 MO|     10              -9.796795            -266.584343               2.000000
 MO|     11              -9.796665            -266.580813               2.000000
 MO|     12              -9.796660            -266.580673               2.000000
 MO|     13              -9.796654            -266.580518               2.000000
 MO|     14              -9.796574            -266.578336               2.000000
 MO|     15              -9.789128            -266.375710               2.000000
 MO|     16              -9.789110            -266.375218               2.000000
 MO|     17              -9.789109            -266.375191               2.000000
 MO|     18              -9.789100            -266.374958               2.000000
 MO|     19              -9.788937            -266.370515               2.000000
 MO|     20              -9.788923            -266.370154               2.000000
 MO|     21              -9.787303            -266.326061               2.000000
 MO|     22              -9.787303            -266.326048               2.000000
 MO|     23              -9.787275            -266.325308               2.000000
 MO|     24              -9.787272            -266.325211               2.000000
 MO|     25              -9.783074            -266.210971               2.000000
 MO|     26              -9.783072            -266.210930               2.000000
 MO|     27              -9.782987            -266.208622               2.000000
 MO|     28              -9.782985            -266.208564               2.000000
 MO|     29              -0.838630             -22.820285               2.000000
 MO|     30              -0.813300             -22.131013               2.000000
 MO|     31              -0.804628             -21.895049               2.000000
 MO|     32              -0.778159             -21.174795               2.000000
 MO|     33              -0.764853             -20.812710               2.000000
 MO|     34              -0.754361             -20.527212               2.000000
 MO|     35              -0.736058             -20.029153               2.000000
 MO|     36              -0.719658             -19.582887               2.000000
 MO|     37              -0.700967             -19.074271               2.000000
 MO|     38              -0.689502             -18.762304               2.000000
 MO|     39              -0.676080             -18.397084               2.000000
 MO|     40              -0.675374             -18.377854               2.000000
 MO|     41              -0.658563             -17.920417               2.000000
 MO|     42              -0.622420             -16.936900               2.000000
 MO|     43              -0.613695             -16.699495               2.000000
 MO|     44              -0.591105             -16.084787               2.000000
 MO|     45              -0.583346             -15.873642               2.000000
 MO|     46              -0.577989             -15.727889               2.000000
 MO|     47              -0.563992             -15.347007               2.000000
 MO|     48              -0.537842             -14.635430               2.000000
 MO|     49              -0.512636             -13.949542               2.000000
 MO|     50              -0.511698             -13.924007               2.000000
 MO|     51              -0.509225             -13.856724               2.000000
 MO|     52              -0.489639             -13.323758               2.000000
 MO|     53              -0.480908             -13.086185               2.000000
 MO|     54              -0.465839             -12.676112               2.000000
 MO|     55              -0.449077             -12.220014               2.000000
 MO|     56              -0.429298             -11.681782               2.000000
 MO|     57              -0.426321             -11.600787               2.000000
 MO|     58              -0.422758             -11.503824               2.000000
 MO|     59              -0.422226             -11.489355               2.000000
 MO|     60              -0.413628             -11.255380               2.000000
 MO|     61              -0.410446             -11.168811               2.000000
 MO|     62              -0.403681             -10.984710               2.000000
 MO|     63              -0.401914             -10.936637               2.000000
 MO|     64              -0.386795             -10.525228               2.000000
 MO|     65              -0.378824             -10.308335               2.000000
 MO|     66              -0.377812             -10.280785               2.000000
 MO|     67              -0.374676             -10.195449               2.000000
 MO|     68              -0.372422             -10.134111               2.000000
 MO|     69              -0.360802              -9.817931               2.000000
 MO|     70              -0.358046              -9.742922               2.000000
 MO|     71              -0.352795              -9.600033               2.000000
 MO|     72              -0.348747              -9.489896               2.000000
 MO|     73              -0.347092              -9.444861               2.000000
 MO|     74              -0.336908              -9.167725               2.000000
 MO|     75              -0.325459              -8.856202               2.000000
 MO|     76              -0.323349              -8.798767               2.000000
 MO|     77              -0.320451              -8.719928               2.000000
 MO|     78              -0.306567              -8.342108               2.000000
 MO|     79              -0.305959              -8.325558               2.000000
 MO|     80              -0.303035              -8.246006               2.000000
 MO|     81              -0.296998              -8.081733               2.000000
 MO|     82              -0.296038              -8.055615               2.000000
 MO|     83              -0.272398              -7.412319               2.000000
 MO|     84              -0.262366              -7.139345               2.000000
 MO|     85              -0.259882              -7.071754               2.000000
 MO|     86              -0.254951              -6.937570               2.000000
 MO|     87              -0.237275              -6.456573               2.000000
 MO|     88              -0.230122              -6.261945               2.000000
 MO|     89              -0.224164              -6.099823               2.000000
 MO|     90              -0.197435              -5.372479               2.000000
 MO|     91              -0.187405              -5.099550               2.000000
 MO|     92              -0.165724              -4.509588               2.000000
 MO|     93              -0.070089              -1.907221               0.000000
 MO|     94              -0.068579              -1.866121               0.000000
 MO|     95              -0.059854              -1.628702               0.000000
 MO|     96              -0.039903              -1.085820               0.000000
 MO|     97              -0.020312              -0.552729               0.000000
 MO|     98              -0.018259              -0.496859               0.000000
 MO|     99              -0.000501              -0.013629               0.000000
 MO|    100               0.002709               0.073718               0.000000
 MO|    101               0.005553               0.151115               0.000000
 MO|    102               0.008710               0.237018               0.000000
 MO|    103               0.010385               0.282598               0.000000
 MO|    104               0.015597               0.424410               0.000000
 MO|    105               0.021267               0.578708               0.000000
 MO|    106               0.032009               0.871015               0.000000
 MO|    107               0.036510               0.993494               0.000000
 MO|    108               0.045527               1.238853               0.000000
 MO|    109               0.049704               1.352517               0.000000
 MO|    110               0.056450               1.536084               0.000000
 MO|    111               0.059802               1.627284               0.000000
 MO|    112               0.059925               1.630650               0.000000
 MO|    113               0.060963               1.658874               0.000000
 MO|    114               0.068915               1.875276               0.000000
 MO|    115               0.071669               1.950205               0.000000
 MO|    116               0.072470               1.972017               0.000000
 MO|    117               0.080264               2.184089               0.000000
 MO|    118               0.080668               2.195082               0.000000
 MO|    119               0.088343               2.403923               0.000000
 MO|    120               0.095772               2.606102               0.000000
 MO|    121               0.095842               2.607985               0.000000
 MO|    122               0.099433               2.705712               0.000000
 MO|    123               0.103585               2.818702               0.000000
 MO|    124               0.112690               3.066449               0.000000
 MO|    125               0.113077               3.076975               0.000000
 MO|    126               0.117004               3.183830               0.000000
 MO|    127               0.119676               3.256543               0.000000
 MO|    128               0.121065               3.294349               0.000000
 MO|    129               0.130202               3.542981               0.000000
 MO|    130               0.137357               3.737666               0.000000
 MO|    131               0.147936               4.025557               0.000000
 MO|    132               0.148409               4.038414               0.000000
 MO|    133               0.160404               4.364817               0.000000
 MO|    134               0.160979               4.380472               0.000000
 MO|    135               0.164744               4.482913               0.000000
 MO|    136               0.164810               4.484711               0.000000
 MO|    137               0.165766               4.510730               0.000000
 MO|    138               0.166350               4.526623               0.000000
 MO|    139               0.167414               4.555566               0.000000
 MO|    140               0.173847               4.730622               0.000000
 MO|    141               0.175911               4.786770               0.000000
 MO|    142               0.178522               4.857818               0.000000
 MO|    143               0.190194               5.175448               0.000000
 MO|    144               0.190768               5.191074               0.000000
 MO|    145               0.198759               5.408513               0.000000
 MO|    146               0.204654               5.568923               0.000000
 MO|    147               0.205201               5.583811               0.000000
 MO|    148               0.205797               5.600032               0.000000
 MO|    149               0.213127               5.799487               0.000000
 MO|    150               0.214271               5.830600               0.000000
 MO|    151               0.215001               5.850488               0.000000
 MO|    152               0.220011               5.986802               0.000000
 MO|    153               0.221866               6.037273               0.000000
 MO|    154               0.222093               6.043458               0.000000
 MO|    155               0.234543               6.382252               0.000000
 MO|    156               0.238203               6.481846               0.000000
 MO|    157               0.241288               6.565779               0.000000
 MO|    158               0.244484               6.652741               0.000000
 MO|    159               0.247480               6.734268               0.000000
 MO|    160               0.247581               6.737031               0.000000
 MO|    161               0.248799               6.770162               0.000000
 MO|    162               0.250361               6.812682               0.000000
 MO|    163               0.270323               7.355855               0.000000
 MO|    164               0.272464               7.414125               0.000000
 MO|    165               0.272484               7.414659               0.000000
 MO|    166               0.276098               7.513001               0.000000
 MO|    167               0.284602               7.744406               0.000000
 MO|    168               0.289482               7.877216               0.000000
 MO|    169               0.292929               7.970999               0.000000
 MO|    170               0.295180               8.032250               0.000000
 MO|    171               0.307214               8.359711               0.000000
 MO|    172               0.307410               8.365045               0.000000
 MO|    173               0.308087               8.383468               0.000000
 MO|    174               0.311993               8.489772               0.000000
 MO|    175               0.320515               8.721649               0.000000
 MO|    176               0.323262               8.796403               0.000000
 MO|    177               0.329943               8.978200               0.000000
 MO|    178               0.330405               8.990772               0.000000
 MO|    179               0.341820               9.301406               0.000000
 MO|    180               0.342022               9.306883               0.000000
 MO|    181               0.342282               9.313969               0.000000
 MO|    182               0.344676               9.379109               0.000000
 MO|    183               0.361883               9.847346               0.000000
 MO|    184               0.364446               9.917083               0.000000
 MO|    185               0.369634              10.058263               0.000000
 MO|    186               0.381464              10.380152               0.000000
 MO|    187               0.383648              10.439606               0.000000
 MO|    188               0.392581              10.682665               0.000000
 MO|    189               0.395023              10.749122               0.000000
 MO|    190               0.400584              10.900442               0.000000
 MO|    191               0.408256              11.109222               0.000000
 MO|    192               0.413268              11.245586               0.000000
 MO| Sum:                                                             184.000000
 MO| E(Fermi):           -0.080409 a.u.         -2.188029 eV
 MO| Band gap:            0.095635 a.u.          2.602367 eV

     9 Broy./Diag. 0.40E+00    0.3     0.00145181     -1063.0580884039 -1.06E-01
  Decoupling Energy:                                              -0.0000052311

 MO| EIGENVALUES AND OCCUPATION NUMBERS AFTER SCF STEP 9
 MO|
 MO|  Index      Eigenvalue [a.u.]        Eigenvalue [eV]             Occupation
 MO|      1              -9.798702            -266.636239               2.000000
 MO|      2              -9.798682            -266.635697               2.000000
 MO|      3              -9.798674            -266.635488               2.000000
 MO|      4              -9.798664            -266.635200               2.000000
 MO|      5              -9.796263            -266.569872               2.000000
 MO|      6              -9.796229            -266.568939               2.000000
 MO|      7              -9.796190            -266.567884               2.000000
 MO|      8              -9.796119            -266.565943               2.000000
 MO|      9              -9.796095            -266.565292               2.000000
 MO|     10              -9.795940            -266.561092               2.000000
 MO|     11              -9.795829            -266.558058               2.000000
 MO|     12              -9.795817            -266.557725               2.000000
 MO|     13              -9.795804            -266.557370               2.000000
 MO|     14              -9.795738            -266.555584               2.000000
 MO|     15              -9.788199            -266.350429               2.000000
 MO|     16              -9.788195            -266.350331               2.000000
 MO|     17              -9.788186            -266.350098               2.000000
 MO|     18              -9.788184            -266.350026               2.000000
 MO|     19              -9.787756            -266.338389               2.000000
 MO|     20              -9.787740            -266.337938               2.000000
 MO|     21              -9.786468            -266.303325               2.000000
 MO|     22              -9.786467            -266.303312               2.000000
 MO|     23              -9.786440            -266.302571               2.000000
 MO|     24              -9.786436            -266.302475               2.000000
 MO|     25              -9.782100            -266.184481               2.000000
 MO|     26              -9.782099            -266.184439               2.000000
 MO|     27              -9.782014            -266.182131               2.000000
 MO|     28              -9.782012            -266.182073               2.000000
 MO|     29              -0.837677             -22.794356               2.000000
 MO|     30              -0.812332             -22.104666               2.000000
 MO|     31              -0.803690             -21.869512               2.000000
 MO|     32              -0.777237             -21.149691               2.000000
 MO|     33              -0.763852             -20.785476               2.000000
 MO|     34              -0.753412             -20.501381               2.000000
 MO|     35              -0.735083             -20.002615               2.000000
 MO|     36              -0.718723             -19.557455               2.000000
 MO|     37              -0.699996             -19.047851               2.000000
 MO|     38              -0.688549             -18.736359               2.000000
 MO|     39              -0.675136             -18.371391               2.000000
 MO|     40              -0.674410             -18.351631               2.000000
 MO|     41              -0.657622             -17.894795               2.000000
 MO|     42              -0.621428             -16.909924               2.000000
 MO|     43              -0.612719             -16.672943               2.000000
 MO|     44              -0.590131             -16.058292               2.000000
 MO|     45              -0.582394             -15.847750               2.000000
 MO|     46              -0.577059             -15.702570               2.000000
 MO|     47              -0.563030             -15.320834               2.000000
 MO|     48              -0.536878             -14.609185               2.000000
 MO|     49              -0.511635             -13.922291               2.000000
 MO|     50              -0.510709             -13.897096               2.000000
 MO|     51              -0.508267             -13.830636               2.000000
 MO|     52              -0.488655             -13.296975               2.000000
 MO|     53              -0.479950             -13.060095               2.000000
 MO|     54              -0.464838             -12.648879               2.000000
 MO|     55              -0.448090             -12.193142               2.000000
 MO|     56              -0.428280             -11.654090               2.000000
 MO|     57              -0.425335             -11.573956               2.000000
 MO|     58              -0.421767             -11.476866               2.000000
 MO|     59              -0.421302             -11.464200               2.000000
 MO|     60              -0.412617             -11.227876               2.000000
 MO|     61              -0.409354             -11.139080               2.000000
 MO|     62              -0.402725             -10.958701               2.000000
 MO|     63              -0.400798             -10.906275               2.000000
 MO|     64              -0.385784             -10.497726               2.000000
 MO|     65              -0.377861             -10.282124               2.000000
 MO|     66              -0.376888             -10.255657               2.000000
 MO|     67              -0.373674             -10.168199               2.000000
 MO|     68              -0.371456             -10.107844               2.000000
 MO|     69              -0.359866              -9.792447               2.000000
 MO|     70              -0.356946              -9.712992               2.000000
 MO|     71              -0.351760              -9.571884               2.000000
 MO|     72              -0.347751              -9.462773               2.000000
 MO|     73              -0.346165              -9.419629               2.000000
 MO|     74              -0.335908              -9.140530               2.000000
 MO|     75              -0.324489              -8.829802               2.000000
 MO|     76              -0.322357              -8.771768               2.000000
 MO|     77              -0.319441              -8.692421               2.000000
 MO|     78              -0.305618              -8.316286               2.000000
 MO|     79              -0.304898              -8.296700               2.000000
 MO|     80              -0.302031              -8.218687               2.000000
 MO|     81              -0.296043              -8.055726               2.000000
 MO|     82              -0.295012              -8.027672               2.000000
 MO|     83              -0.271479              -7.387315               2.000000
 MO|     84              -0.261415              -7.113455               2.000000
 MO|     85              -0.258879              -7.044446               2.000000
 MO|     86              -0.253929              -6.909768               2.000000
 MO|     87              -0.236247              -6.428606               2.000000
 MO|     88              -0.229116              -6.234575               2.000000
 MO|     89              -0.223160              -6.072479               2.000000
 MO|     90              -0.196423              -5.344929               2.000000
 MO|     91              -0.186371              -5.071407               2.000000
 MO|     92              -0.164705              -4.481862               2.000000
 MO|     93              -0.069121              -1.880890               0.000000
 MO|     94              -0.067680              -1.841679               0.000000
 MO|     95              -0.058898              -1.602704               0.000000
 MO|     96              -0.038982              -1.060745               0.000000
 MO|     97              -0.019360              -0.526823               0.000000
 MO|     98              -0.017582              -0.478439               0.000000
 MO|     99              -0.001793              -0.048796               0.000000
 MO|    100               0.001278               0.034763               0.000000
 MO|    101               0.006378               0.173542               0.000000
 MO|    102               0.007409               0.201618               0.000000
 MO|    103               0.011214               0.305157               0.000000
 MO|    104               0.014112               0.383999               0.000000
 MO|    105               0.019741               0.537183               0.000000
 MO|    106               0.030410               0.827495               0.000000
 MO|    107               0.034867               0.948783               0.000000
 MO|    108               0.044560               1.212552               0.000000
 MO|    109               0.048152               1.310295               0.000000
 MO|    110               0.054720               1.488994               0.000000
 MO|    111               0.058423               1.589776               0.000000
 MO|    112               0.058462               1.590837               0.000000
 MO|    113               0.060869               1.656334               0.000000
 MO|    114               0.067554               1.838228               0.000000
 MO|    115               0.070929               1.930077               0.000000
 MO|    116               0.071051               1.933383               0.000000
 MO|    117               0.078650               2.140166               0.000000
 MO|    118               0.079235               2.156084               0.000000
 MO|    119               0.086693               2.359028               0.000000
 MO|    120               0.095701               2.604152               0.000000
 MO|    121               0.096088               2.614677               0.000000
 MO|    122               0.098284               2.674455               0.000000
 MO|    123               0.102380               2.785901               0.000000
 MO|    124               0.111332               3.029501               0.000000
 MO|    125               0.112436               3.059531               0.000000
 MO|    126               0.115272               3.136722               0.000000
 MO|    127               0.119432               3.249912               0.000000
 MO|    128               0.120453               3.277683               0.000000
 MO|    129               0.129318               3.518924               0.000000
 MO|    130               0.136253               3.707623               0.000000
 MO|    131               0.146570               3.988373               0.000000
 MO|    132               0.146574               3.988473               0.000000
 MO|    133               0.160149               4.357866               0.000000
 MO|    134               0.160363               4.363698               0.000000
 MO|    135               0.162544               4.423058               0.000000
 MO|    136               0.164875               4.486485               0.000000
 MO|    137               0.165108               4.492817               0.000000
 MO|    138               0.165964               4.516112               0.000000
 MO|    139               0.166970               4.543485               0.000000
 MO|    140               0.171965               4.679399               0.000000
 MO|    141               0.175493               4.775397               0.000000
 MO|    142               0.177543               4.831194               0.000000
 MO|    143               0.188552               5.130750               0.000000
 MO|    144               0.190085               5.172488               0.000000
 MO|    145               0.198813               5.409980               0.000000
 MO|    146               0.204568               5.566579               0.000000
 MO|    147               0.204730               5.570994               0.000000
 MO|    148               0.205363               5.588209               0.000000
 MO|    149               0.213033               5.796924               0.000000
 MO|    150               0.213340               5.805282               0.000000
 MO|    151               0.213381               5.806382               0.000000
 MO|    152               0.220198               5.991902               0.000000
 MO|    153               0.221343               6.023045               0.000000
 MO|    154               0.222030               6.041744               0.000000
 MO|    155               0.234311               6.375920               0.000000
 MO|    156               0.238595               6.492491               0.000000
 MO|    157               0.240842               6.553654               0.000000
 MO|    158               0.243894               6.636698               0.000000
 MO|    159               0.246928               6.719248               0.000000
 MO|    160               0.247013               6.721577               0.000000
 MO|    161               0.247344               6.730581               0.000000
 MO|    162               0.250157               6.807105               0.000000
 MO|    163               0.269812               7.341960               0.000000
 MO|    164               0.270972               7.373520               0.000000
 MO|    165               0.272042               7.402635               0.000000
 MO|    166               0.275590               7.499185               0.000000
 MO|    167               0.284519               7.742151               0.000000
 MO|    168               0.288976               7.863449               0.000000
 MO|    169               0.292146               7.949684               0.000000
 MO|    170               0.295269               8.034668               0.000000
 MO|    171               0.307252               8.360740               0.000000
 MO|    172               0.307364               8.363803               0.000000
 MO|    173               0.307791               8.375424               0.000000
 MO|    174               0.311232               8.469055               0.000000
 MO|    175               0.320205               8.713210               0.000000
 MO|    176               0.322889               8.786261               0.000000
 MO|    177               0.329821               8.974886               0.000000
 MO|    178               0.330625               8.996756               0.000000
 MO|    179               0.341651               9.296799               0.000000
 MO|    180               0.341795               9.300715               0.000000
 MO|    181               0.342632               9.323481               0.000000
 MO|    182               0.342697               9.325248               0.000000
 MO|    183               0.361239               9.829816               0.000000
 MO|    184               0.364613               9.921633               0.000000
 MO|    185               0.368403              10.024769               0.000000
 MO|    186               0.379285              10.320862               0.000000
 MO|    187               0.382429              10.406414               0.000000
 MO|    188               0.392097              10.669505               0.000000
 MO|    189               0.395377              10.758764               0.000000
 MO|    190               0.400496              10.898042               0.000000
 MO|    191               0.407666              11.093168               0.000000
 MO|    192               0.412366              11.221057               0.000000
 MO| Sum:                                                             184.000000
 MO| E(Fermi):           -0.079442 a.u.         -2.161715 eV
 MO| Band gap:            0.095584 a.u.          2.600973 eV

    10 Broy./Diag. 0.40E+00    0.3     0.00097018     -1063.0756984620 -1.76E-02
  Decoupling Energy:                                              -0.0000077459

 MO| EIGENVALUES AND OCCUPATION NUMBERS AFTER SCF STEP 10
 MO|
 MO|  Index      Eigenvalue [a.u.]        Eigenvalue [eV]             Occupation
 MO|      1              -9.797849            -266.613026               2.000000
 MO|      2              -9.797829            -266.612480               2.000000
 MO|      3              -9.797821            -266.612273               2.000000
 MO|      4              -9.797810            -266.611981               2.000000
 MO|      5              -9.795470            -266.548295               2.000000
 MO|      6              -9.795438            -266.547420               2.000000
 MO|      7              -9.795392            -266.546183               2.000000
 MO|      8              -9.795324            -266.544327               2.000000
 MO|      9              -9.795297            -266.543579               2.000000
 MO|     10              -9.795140            -266.539302               2.000000
 MO|     11              -9.795026            -266.536204               2.000000
 MO|     12              -9.795018            -266.535982               2.000000
 MO|     13              -9.794999            -266.535479               2.000000
 MO|     14              -9.794939            -266.533857               2.000000
 MO|     15              -9.787362            -266.327664               2.000000
 MO|     16              -9.787360            -266.327620               2.000000
 MO|     17              -9.787352            -266.327388               2.000000
 MO|     18              -9.787348            -266.327274               2.000000
 MO|     19              -9.786807            -266.312567               2.000000
 MO|     20              -9.786790            -266.312104               2.000000
 MO|     21              -9.785581            -266.279204               2.000000
 MO|     22              -9.785581            -266.279191               2.000000
 MO|     23              -9.785553            -266.278451               2.000000
 MO|     24              -9.785550            -266.278354               2.000000
 MO|     25              -9.781261            -266.161660               2.000000
 MO|     26              -9.781260            -266.161618               2.000000
 MO|     27              -9.781175            -266.159311               2.000000
 MO|     28              -9.781173            -266.159252               2.000000
 MO|     29              -0.836748             -22.769070               2.000000
 MO|     30              -0.811401             -22.079341               2.000000
 MO|     31              -0.802787             -21.844933               2.000000
 MO|     32              -0.776345             -21.125419               2.000000
 MO|     33              -0.762927             -20.760310               2.000000
 MO|     34              -0.752512             -20.476882               2.000000
 MO|     35              -0.734181             -19.978080               2.000000
 MO|     36              -0.717833             -19.533232               2.000000
 MO|     37              -0.699093             -19.023287               2.000000
 MO|     38              -0.687651             -18.711948               2.000000
 MO|     39              -0.674245             -18.347141               2.000000
 MO|     40              -0.673516             -18.327297               2.000000
 MO|     41              -0.656735             -17.870676               2.000000
 MO|     42              -0.620547             -16.885937               2.000000
 MO|     43              -0.611834             -16.648856               2.000000
 MO|     44              -0.589236             -16.033934               2.000000
 MO|     45              -0.581507             -15.823598               2.000000
 MO|     46              -0.576175             -15.678532               2.000000
 MO|     47              -0.562140             -15.296616               2.000000
 MO|     48              -0.535991             -14.585052               2.000000
 MO|     49              -0.510747             -13.898130               2.000000
 MO|     50              -0.509829             -13.873143               2.000000
 MO|     51              -0.507383             -13.806589               2.000000
 MO|     52              -0.487759             -13.272595               2.000000
 MO|     53              -0.479068             -13.036093               2.000000
 MO|     54              -0.463958             -12.624943               2.000000
 MO|     55              -0.447207             -12.169108               2.000000
 MO|     56              -0.427387             -11.629785               2.000000
 MO|     57              -0.424451             -11.549911               2.000000
 MO|     58              -0.420887             -11.452931               2.000000
 MO|     59              -0.420429             -11.440445               2.000000
 MO|     60              -0.411728             -11.203689               2.000000
 MO|     61              -0.408371             -11.112328               2.000000
 MO|     62              -0.401851             -10.934922               2.000000
 MO|     63              -0.399831             -10.879944               2.000000
 MO|     64              -0.384891             -10.473419               2.000000
 MO|     65              -0.376990             -10.258420               2.000000
 MO|     66              -0.376022             -10.232090               2.000000
 MO|     67              -0.372791             -10.144171               2.000000
 MO|     68              -0.370565             -10.083583               2.000000
 MO|     69              -0.358997              -9.768810               2.000000
 MO|     70              -0.355962              -9.686226               2.000000
 MO|     71              -0.350782              -9.545268               2.000000
 MO|     72              -0.346872              -9.438874               2.000000
 MO|     73              -0.345287              -9.395735               2.000000
 MO|     74              -0.335029              -9.116593               2.000000
 MO|     75              -0.323629              -8.806399               2.000000
 MO|     76              -0.321487              -8.748108               2.000000
 MO|     77              -0.318486              -8.666437               2.000000
 MO|     78              -0.304750              -8.292663               2.000000
 MO|     79              -0.303946              -8.270800               2.000000
 MO|     80              -0.301150              -8.194715               2.000000
 MO|     81              -0.295165              -8.031852               2.000000
 MO|     82              -0.294046              -8.001388               2.000000
 MO|     83              -0.270611              -7.363700               2.000000
 MO|     84              -0.260541              -7.089670               2.000000
 MO|     85              -0.257934              -7.018729               2.000000
 MO|     86              -0.252965              -6.883536               2.000000
 MO|     87              -0.235305              -6.402970               2.000000
 MO|     88              -0.228163              -6.208636               2.000000
 MO|     89              -0.222207              -6.046547               2.000000
 MO|     90              -0.195479              -5.319267               2.000000
 MO|     91              -0.185442              -5.046125               2.000000
 MO|     92              -0.163756              -4.456032               2.000000
 MO|     93              -0.068213              -1.856167               0.000000
 MO|     94              -0.066878              -1.819854               0.000000
 MO|     95              -0.058016              -1.578696               0.000000
 MO|     96              -0.038112              -1.037076               0.000000
 MO|     97              -0.018469              -0.502573               0.000000
 MO|     98              -0.017041              -0.463699               0.000000
 MO|     99              -0.003496              -0.095124               0.000000
 MO|    100              -0.000631              -0.017160               0.000000
 MO|    101               0.005789               0.157527               0.000000
 MO|    102               0.007129               0.193983               0.000000
 MO|    103               0.011967               0.325640               0.000000
 MO|    104               0.012217               0.332451               0.000000
 MO|    105               0.017784               0.483916               0.000000
 MO|    106               0.028324               0.770746               0.000000
 MO|    107               0.032769               0.891702               0.000000
 MO|    108               0.043273               1.177519               0.000000
 MO|    109               0.046167               1.256258               0.000000
 MO|    110               0.052399               1.425841               0.000000
 MO|    111               0.056581               1.539646               0.000000
 MO|    112               0.056682               1.542384               0.000000
 MO|    113               0.060266               1.639930               0.000000
 MO|    114               0.066204               1.801502               0.000000
 MO|    115               0.069024               1.878241               0.000000
 MO|    116               0.070272               1.912189               0.000000
 MO|    117               0.076712               2.087444               0.000000
 MO|    118               0.077762               2.116006               0.000000
 MO|    119               0.084994               2.312805               0.000000
 MO|    120               0.095532               2.599555               0.000000
 MO|    121               0.096256               2.619267               0.000000
 MO|    122               0.096604               2.628717               0.000000
 MO|    123               0.100904               2.745728               0.000000
 MO|    124               0.109792               2.987601               0.000000
 MO|    125               0.111702               3.039574               0.000000
 MO|    126               0.113498               3.088439               0.000000
 MO|    127               0.119011               3.238449               0.000000
 MO|    128               0.119666               3.256271               0.000000
 MO|    129               0.128195               3.488367               0.000000
 MO|    130               0.134545               3.661152               0.000000
 MO|    131               0.144485               3.931632               0.000000
 MO|    132               0.144943               3.944088               0.000000
 MO|    133               0.159363               4.336487               0.000000
 MO|    134               0.159640               4.344025               0.000000
 MO|    135               0.159716               4.346098               0.000000
 MO|    136               0.163495               4.448927               0.000000
 MO|    137               0.165217               4.495791               0.000000
 MO|    138               0.165505               4.503631               0.000000
 MO|    139               0.166246               4.523789               0.000000
 MO|    140               0.169390               4.609328               0.000000
 MO|    141               0.174670               4.753017               0.000000
 MO|    142               0.176463               4.801796               0.000000
 MO|    143               0.186774               5.082382               0.000000
 MO|    144               0.188564               5.131083               0.000000
 MO|    145               0.198587               5.403835               0.000000
 MO|    146               0.203815               5.546090               0.000000
 MO|    147               0.204092               5.553627               0.000000
 MO|    148               0.204496               5.564607               0.000000
 MO|    149               0.211344               5.750953               0.000000
 MO|    150               0.211567               5.757036               0.000000
 MO|    151               0.212566               5.784210               0.000000
 MO|    152               0.220054               5.987961               0.000000
 MO|    153               0.220334               5.995595               0.000000
 MO|    154               0.221637               6.031037               0.000000
 MO|    155               0.233790               6.361736               0.000000
 MO|    156               0.238755               6.496857               0.000000
 MO|    157               0.239773               6.524551               0.000000
 MO|    158               0.242924               6.610296               0.000000
 MO|    159               0.245147               6.670792               0.000000
 MO|    160               0.245699               6.685803               0.000000
 MO|    161               0.246779               6.715201               0.000000
 MO|    162               0.249559               6.790851               0.000000
 MO|    163               0.268729               7.312499               0.000000
 MO|    164               0.269143               7.323744               0.000000
 MO|    165               0.271001               7.374322               0.000000
 MO|    166               0.274517               7.469978               0.000000
 MO|    167               0.284074               7.730057               0.000000
 MO|    168               0.287858               7.833012               0.000000
 MO|    169               0.290652               7.909036               0.000000
 MO|    170               0.295084               8.029632               0.000000
 MO|    171               0.305927               8.324690               0.000000
 MO|    172               0.307175               8.358648               0.000000
 MO|    173               0.308127               8.384570               0.000000
 MO|    174               0.309743               8.428547               0.000000
 MO|    175               0.319355               8.690078               0.000000
 MO|    176               0.322199               8.767480               0.000000
 MO|    177               0.329072               8.954496               0.000000
 MO|    178               0.330546               8.994627               0.000000
 MO|    179               0.340196               9.257212               0.000000
 MO|    180               0.340834               9.274567               0.000000
 MO|    181               0.341493               9.292489               0.000000
 MO|    182               0.342927               9.331517               0.000000
 MO|    183               0.360343               9.805437               0.000000
 MO|    184               0.364528               9.919317               0.000000
 MO|    185               0.366852               9.982540               0.000000
 MO|    186               0.376619              10.248313               0.000000
 MO|    187               0.380522              10.354523               0.000000
 MO|    188               0.391319              10.648320               0.000000
 MO|    189               0.395457              10.760924               0.000000
 MO|    190               0.399977              10.883925               0.000000
 MO|    191               0.406780              11.069059               0.000000
 MO|    192               0.410982              11.183380               0.000000
 MO| Sum:                                                             184.000000
 MO| E(Fermi):           -0.078534 a.u.         -2.137029 eV
 MO| Band gap:            0.095543 a.u.          2.599865 eV

    11 Broy./Diag. 0.40E+00    0.3     0.00127760     -1063.0443801095  3.13E-02
  Decoupling Energy:                                              -0.0000125372

 MO| EIGENVALUES AND OCCUPATION NUMBERS AFTER SCF STEP 11
 MO|
 MO|  Index      Eigenvalue [a.u.]        Eigenvalue [eV]             Occupation
 MO|      1              -9.797395            -266.600675               2.000000
 MO|      2              -9.797375            -266.600129               2.000000
 MO|      3              -9.797367            -266.599922               2.000000
 MO|      4              -9.797357            -266.599631               2.000000
 MO|      5              -9.794999            -266.535482               2.000000
 MO|      6              -9.794974            -266.534794               2.000000
 MO|      7              -9.794905            -266.532923               2.000000
 MO|      8              -9.794858            -266.531644               2.000000
 MO|      9              -9.794826            -266.530771               2.000000
 MO|     10              -9.794669            -266.526489               2.000000
 MO|     11              -9.794542            -266.523048               2.000000
 MO|     12              -9.794540            -266.522983               2.000000
 MO|     13              -9.794526            -266.522611               2.000000
 MO|     14              -9.794458            -266.520760               2.000000
 MO|     15              -9.786860            -266.314017               2.000000
 MO|     16              -9.786857            -266.313923               2.000000
 MO|     17              -9.786848            -266.313690               2.000000
 MO|     18              -9.786846            -266.313615               2.000000
 MO|     19              -9.786411            -266.301798               2.000000
 MO|     20              -9.786395            -266.301346               2.000000
 MO|     21              -9.785108            -266.266334               2.000000
 MO|     22              -9.785108            -266.266320               2.000000
 MO|     23              -9.785080            -266.265580               2.000000
 MO|     24              -9.785077            -266.265483               2.000000
 MO|     25              -9.780751            -266.147772               2.000000
 MO|     26              -9.780750            -266.147730               2.000000
 MO|     27              -9.780665            -266.145423               2.000000
 MO|     28              -9.780663            -266.145364               2.000000
 MO|     29              -0.836296             -22.756760               2.000000
 MO|     30              -0.810967             -22.067542               2.000000
 MO|     31              -0.802338             -21.832724               2.000000
 MO|     32              -0.775907             -21.113503               2.000000
 MO|     33              -0.762496             -20.748570               2.000000
 MO|     34              -0.752063             -20.464688               2.000000
 MO|     35              -0.733752             -19.966400               2.000000
 MO|     36              -0.717393             -19.521264               2.000000
 MO|     37              -0.698652             -19.011291               2.000000
 MO|     38              -0.687211             -18.699949               2.000000
 MO|     39              -0.673810             -18.335295               2.000000
 MO|     40              -0.673078             -18.315395               2.000000
 MO|     41              -0.656293             -17.858643               2.000000
 MO|     42              -0.620117             -16.874229               2.000000
 MO|     43              -0.611397             -16.636957               2.000000
 MO|     44              -0.588800             -16.022059               2.000000
 MO|     45              -0.581067             -15.811632               2.000000
 MO|     46              -0.575733             -15.666496               2.000000
 MO|     47              -0.561702             -15.284690               2.000000
 MO|     48              -0.535556             -14.573228               2.000000
 MO|     49              -0.510320             -13.886506               2.000000
 MO|     50              -0.509392             -13.861259               2.000000
 MO|     51              -0.506947             -13.794731               2.000000
 MO|     52              -0.487323             -13.260725               2.000000
 MO|     53              -0.478635             -13.024314               2.000000
 MO|     54              -0.463523             -12.613110               2.000000
 MO|     55              -0.446778             -12.157443               2.000000
 MO|     56              -0.426956             -11.618070               2.000000
 MO|     57              -0.424013             -11.537968               2.000000
 MO|     58              -0.420466             -11.441475               2.000000
 MO|     59              -0.419996             -11.428684               2.000000
 MO|     60              -0.411298             -11.192001               2.000000
 MO|     61              -0.407921             -11.100083               2.000000
 MO|     62              -0.401419             -10.923175               2.000000
 MO|     63              -0.399395             -10.868097               2.000000
 MO|     64              -0.384464             -10.461786               2.000000
 MO|     65              -0.376559             -10.246702               2.000000
 MO|     66              -0.375587             -10.220243               2.000000
 MO|     67              -0.372367             -10.132630               2.000000
 MO|     68              -0.370126             -10.071630               2.000000
 MO|     69              -0.358558              -9.756868               2.000000
 MO|     70              -0.355500              -9.673656               2.000000
 MO|     71              -0.350317              -9.532601               2.000000
 MO|     72              -0.346448              -9.427334               2.000000
 MO|     73              -0.344856              -9.384007               2.000000
 MO|     74              -0.334602              -9.104987               2.000000
 MO|     75              -0.323206              -8.794892               2.000000
 MO|     76              -0.321060              -8.736487               2.000000
 MO|     77              -0.318035              -8.654184               2.000000
 MO|     78              -0.304316              -8.280868               2.000000
 MO|     79              -0.303498              -8.258591               2.000000
 MO|     80              -0.300717              -8.182927               2.000000
 MO|     81              -0.294737              -8.020203               2.000000
 MO|     82              -0.293581              -7.988746               2.000000
 MO|     83              -0.270173              -7.351777               2.000000
 MO|     84              -0.260101              -7.077698               2.000000
 MO|     85              -0.257486              -7.006547               2.000000
 MO|     86              -0.252507              -6.871071               2.000000
 MO|     87              -0.234857              -6.390792               2.000000
 MO|     88              -0.227715              -6.196451               2.000000
 MO|     89              -0.221760              -6.034389               2.000000
 MO|     90              -0.195028              -5.306984               2.000000
 MO|     91              -0.184998              -5.034042               2.000000
 MO|     92              -0.163305              -4.443762               2.000000
 MO|     93              -0.067789              -1.844643               0.000000
 MO|     94              -0.066520              -1.810100               0.000000
 MO|     95              -0.057602              -1.567422               0.000000
 MO|     96              -0.037708              -1.026086               0.000000
 MO|     97              -0.018057              -0.491364               0.000000
 MO|     98              -0.016871              -0.459095               0.000000
 MO|     99              -0.004822              -0.131211               0.000000
 MO|    100              -0.002134              -0.058077               0.000000
 MO|    101               0.004603               0.125266               0.000000
 MO|    102               0.007469               0.203240               0.000000
 MO|    103               0.010823               0.294513               0.000000
 MO|    104               0.012292               0.334475               0.000000
 MO|    105               0.016242               0.441958               0.000000
 MO|    106               0.026659               0.725430               0.000000
 MO|    107               0.031178               0.848393               0.000000
 MO|    108               0.042238               1.149356               0.000000
 MO|    109               0.044629               1.214411               0.000000
 MO|    110               0.050498               1.374116               0.000000
 MO|    111               0.055145               1.500559               0.000000
 MO|    112               0.055407               1.507690               0.000000
 MO|    113               0.059522               1.619680               0.000000
 MO|    114               0.065378               1.779023               0.000000
 MO|    115               0.067253               1.830040               0.000000
 MO|    116               0.069860               1.900997               0.000000
 MO|    117               0.075362               2.050711               0.000000
 MO|    118               0.076803               2.089929               0.000000
 MO|    119               0.083876               2.282377               0.000000
 MO|    120               0.095099               2.587788               0.000000
 MO|    121               0.095306               2.593408               0.000000
 MO|    122               0.096213               2.618079               0.000000
 MO|    123               0.099811               2.716004               0.000000
 MO|    124               0.108650               2.956522               0.000000
 MO|    125               0.111171               3.025122               0.000000
 MO|    126               0.112373               3.057813               0.000000
 MO|    127               0.118533               3.225445               0.000000
 MO|    128               0.119061               3.239806               0.000000
 MO|    129               0.127348               3.465306               0.000000
 MO|    130               0.132902               3.616435               0.000000
 MO|    131               0.143064               3.892980               0.000000
 MO|    132               0.143741               3.911404               0.000000
 MO|    133               0.157524               4.286445               0.000000
 MO|    134               0.158470               4.312192               0.000000
 MO|    135               0.159281               4.334265               0.000000
 MO|    136               0.162181               4.413162               0.000000
 MO|    137               0.164470               4.475452               0.000000
 MO|    138               0.165510               4.503748               0.000000
 MO|    139               0.165680               4.508377               0.000000
 MO|    140               0.167286               4.552090               0.000000
 MO|    141               0.173778               4.728752               0.000000
 MO|    142               0.175674               4.780321               0.000000
 MO|    143               0.185553               5.049142               0.000000
 MO|    144               0.186850               5.084438               0.000000
 MO|    145               0.198151               5.391956               0.000000
 MO|    146               0.202754               5.517219               0.000000
 MO|    147               0.203441               5.535922               0.000000
 MO|    148               0.203535               5.538466               0.000000
 MO|    149               0.209662               5.705181               0.000000
 MO|    150               0.209811               5.709260               0.000000
 MO|    151               0.211902               5.766141               0.000000
 MO|    152               0.219231               5.965570               0.000000
 MO|    153               0.219618               5.976121               0.000000
 MO|    154               0.221033               6.014608               0.000000
 MO|    155               0.233274               6.347713               0.000000
 MO|    156               0.238539               6.490978               0.000000
 MO|    157               0.238601               6.492658               0.000000
 MO|    158               0.241956               6.583944               0.000000
 MO|    159               0.243942               6.638010               0.000000
 MO|    160               0.244480               6.652634               0.000000
 MO|    161               0.245980               6.693446               0.000000
 MO|    162               0.248811               6.770503               0.000000
 MO|    163               0.267513               7.279398               0.000000
 MO|    164               0.267784               7.286761               0.000000
 MO|    165               0.269868               7.343495               0.000000
 MO|    166               0.273462               7.441283               0.000000
 MO|    167               0.283469               7.713575               0.000000
 MO|    168               0.286580               7.798241               0.000000
 MO|    169               0.289143               7.867988               0.000000
 MO|    170               0.294758               8.020767               0.000000
 MO|    171               0.304676               8.290644               0.000000
 MO|    172               0.306761               8.347379               0.000000
 MO|    173               0.308192               8.386334               0.000000
 MO|    174               0.308224               8.387195               0.000000
 MO|    175               0.318171               8.657868               0.000000
 MO|    176               0.321640               8.752265               0.000000
 MO|    177               0.327996               8.925237               0.000000
 MO|    178               0.330138               8.983501               0.000000
 MO|    179               0.338395               9.208186               0.000000
 MO|    180               0.339955               9.250652               0.000000
 MO|    181               0.340983               9.278632               0.000000
 MO|    182               0.342885               9.330383               0.000000
 MO|    183               0.359689               9.787629               0.000000
 MO|    184               0.364306               9.913259               0.000000
 MO|    185               0.365649               9.949826               0.000000
 MO|    186               0.374585              10.192971               0.000000
 MO|    187               0.378785              10.307270               0.000000
 MO|    188               0.390605              10.628894               0.000000
 MO|    189               0.395197              10.753856               0.000000
 MO|    190               0.399202              10.862841               0.000000
 MO|    191               0.406024              11.048475               0.000000
 MO|    192               0.409541              11.144179               0.000000
 MO| Sum:                                                             184.000000
 MO| E(Fermi):           -0.078112 a.u.         -2.125533 eV
 MO| Band gap:            0.095516 a.u.          2.599120 eV

    12 Broy./Diag. 0.40E+00    0.3     0.00095594     -1063.0344225183  9.96E-03
  Decoupling Energy:                                              -0.0000146965

 MO| EIGENVALUES AND OCCUPATION NUMBERS AFTER SCF STEP 12
 MO|
 MO|  Index      Eigenvalue [a.u.]        Eigenvalue [eV]             Occupation
 MO|      1              -9.796860            -266.586117               2.000000
 MO|      2              -9.796840            -266.585570               2.000000
 MO|      3              -9.796832            -266.585363               2.000000
 MO|      4              -9.796822            -266.585072               2.000000
 MO|      5              -9.794480            -266.521342               2.000000
 MO|      6              -9.794455            -266.520677               2.000000
 MO|      7              -9.794382            -266.518683               2.000000
 MO|      8              -9.794341            -266.517586               2.000000
 MO|      9              -9.794312            -266.516779               2.000000
 MO|     10              -9.794157            -266.512564               2.000000
 MO|     11              -9.794028            -266.509055               2.000000
 MO|     12              -9.794023            -266.508913               2.000000
 MO|     13              -9.794017            -266.508743               2.000000
 MO|     14              -9.793937            -266.506591               2.000000
 MO|     15              -9.786405            -266.301630               2.000000
 MO|     16              -9.786402            -266.301549               2.000000
 MO|     17              -9.786394            -266.301316               2.000000
 MO|     18              -9.786391            -266.301231               2.000000
 MO|     19              -9.785932            -266.288747               2.000000
 MO|     20              -9.785915            -266.288293               2.000000
 MO|     21              -9.784643            -266.253689               2.000000
 MO|     22              -9.784643            -266.253676               2.000000
 MO|     23              -9.784616            -266.252936               2.000000
 MO|     24              -9.784612            -266.252839               2.000000
 MO|     25              -9.780296            -266.135393               2.000000
 MO|     26              -9.780295            -266.135351               2.000000
 MO|     27              -9.780210            -266.133044               2.000000
 MO|     28              -9.780208            -266.132985               2.000000
 MO|     29              -0.835856             -22.744799               2.000000
 MO|     30              -0.810534             -22.055757               2.000000
 MO|     31              -0.801905             -21.820939               2.000000
 MO|     32              -0.775481             -21.101910               2.000000
 MO|     33              -0.762053             -20.736527               2.000000
 MO|     34              -0.751634             -20.453008               2.000000
 MO|     35              -0.733329             -19.954885               2.000000
 MO|     36              -0.716963             -19.509547               2.000000
 MO|     37              -0.698205             -18.999129               2.000000
 MO|     38              -0.686774             -18.688070               2.000000
 MO|     39              -0.673375             -18.323454               2.000000
 MO|     40              -0.672645             -18.303610               2.000000
 MO|     41              -0.655861             -17.846885               2.000000
 MO|     42              -0.619685             -16.862475               2.000000
 MO|     43              -0.610951             -16.624832               2.000000
 MO|     44              -0.588355             -16.009953               2.000000
 MO|     45              -0.580626             -15.799648               2.000000
 MO|     46              -0.575294             -15.654540               2.000000
 MO|     47              -0.561271             -15.272971               2.000000
 MO|     48              -0.535120             -14.561348               2.000000
 MO|     49              -0.509867             -13.874174               2.000000
 MO|     50              -0.508950             -13.849239               2.000000
 MO|     51              -0.506514             -13.782952               2.000000
 MO|     52              -0.486888             -13.248894               2.000000
 MO|     53              -0.478202             -13.012534               2.000000
 MO|     54              -0.463087             -12.601226               2.000000
 MO|     55              -0.446354             -12.145904               2.000000
 MO|     56              -0.426522             -11.606265               2.000000
 MO|     57              -0.423581             -11.526238               2.000000
 MO|     58              -0.420041             -11.429896               2.000000
 MO|     59              -0.419560             -11.416819               2.000000
 MO|     60              -0.410851             -11.179835               2.000000
 MO|     61              -0.407481             -11.088126               2.000000
 MO|     62              -0.400994             -10.911607               2.000000
 MO|     63              -0.398950             -10.855974               2.000000
 MO|     64              -0.384022             -10.449777               2.000000
 MO|     65              -0.376137             -10.235211               2.000000
 MO|     66              -0.375150             -10.208363               2.000000
 MO|     67              -0.371937             -10.120922               2.000000
 MO|     68              -0.369685             -10.059628               2.000000
 MO|     69              -0.358118              -9.744893               2.000000
 MO|     70              -0.355059              -9.661644               2.000000
 MO|     71              -0.349898              -9.521205               2.000000
 MO|     72              -0.346002              -9.415199               2.000000
 MO|     73              -0.344419              -9.372125               2.000000
 MO|     74              -0.334178              -9.093436               2.000000
 MO|     75              -0.322777              -8.783207               2.000000
 MO|     76              -0.320637              -8.724964               2.000000
 MO|     77              -0.317623              -8.642963               2.000000
 MO|     78              -0.303880              -8.268993               2.000000
 MO|     79              -0.303071              -8.246980               2.000000
 MO|     80              -0.300286              -8.171192               2.000000
 MO|     81              -0.294301              -8.008340               2.000000
 MO|     82              -0.293165              -7.977426               2.000000
 MO|     83              -0.269722              -7.339513               2.000000
 MO|     84              -0.259656              -7.065595               2.000000
 MO|     85              -0.257074              -6.995351               2.000000
 MO|     86              -0.252089              -6.859696               2.000000
 MO|     87              -0.234438              -6.379380               2.000000
 MO|     88              -0.227299              -6.185118               2.000000
 MO|     89              -0.221343              -6.023043               2.000000
 MO|     90              -0.194616              -5.295766               2.000000
 MO|     91              -0.184580              -5.022670               2.000000
 MO|     92              -0.162876              -4.432080               2.000000
 MO|     93              -0.067376              -1.833400               0.000000
 MO|     94              -0.066147              -1.799954               0.000000
 MO|     95              -0.057205              -1.556627               0.000000
 MO|     96              -0.037308              -1.015207               0.000000
 MO|     97              -0.017656              -0.480443               0.000000
 MO|     98              -0.016584              -0.451268               0.000000
 MO|     99              -0.005132              -0.139641               0.000000
 MO|    100              -0.002530              -0.068831               0.000000
 MO|    101               0.004402               0.119776               0.000000
 MO|    102               0.007843               0.213413               0.000000
 MO|    103               0.010542               0.286852               0.000000
 MO|    104               0.012648               0.344182               0.000000
 MO|    105               0.015845               0.431171               0.000000
 MO|    106               0.026224               0.713584               0.000000
 MO|    107               0.030781               0.837590               0.000000
 MO|    108               0.042040               1.143962               0.000000
 MO|    109               0.044277               1.204848               0.000000
 MO|    110               0.049915               1.358252               0.000000
 MO|    111               0.054840               1.492284               0.000000
 MO|    112               0.055206               1.502225               0.000000
 MO|    113               0.059423               1.616970               0.000000
 MO|    114               0.065309               1.777144               0.000000
 MO|    115               0.066740               1.816088               0.000000
 MO|    116               0.069940               1.903165               0.000000
 MO|    117               0.075107               2.043766               0.000000
 MO|    118               0.076661               2.086062               0.000000
 MO|    119               0.083628               2.275644               0.000000
 MO|    120               0.094677               2.576297               0.000000
 MO|    121               0.095490               2.598412               0.000000
 MO|    122               0.096407               2.623374               0.000000
 MO|    123               0.099658               2.711839               0.000000
 MO|    124               0.108383               2.949243               0.000000
 MO|    125               0.111233               3.026797               0.000000
 MO|    126               0.112160               3.052035               0.000000
 MO|    127               0.118552               3.225954               0.000000
 MO|    128               0.119115               3.241279               0.000000
 MO|    129               0.127263               3.463007               0.000000
 MO|    130               0.132425               3.603456               0.000000
 MO|    131               0.142792               3.885561               0.000000
 MO|    132               0.143438               3.903155               0.000000
 MO|    133               0.157017               4.272656               0.000000
 MO|    134               0.158352               4.308990               0.000000
 MO|    135               0.159337               4.335789               0.000000
 MO|    136               0.161841               4.403925               0.000000
 MO|    137               0.164425               4.474237               0.000000
 MO|    138               0.165401               4.500800               0.000000
 MO|    139               0.166000               4.517090               0.000000
 MO|    140               0.166657               4.534979               0.000000
 MO|    141               0.173577               4.723260               0.000000
 MO|    142               0.175558               4.777172               0.000000
 MO|    143               0.185283               5.041819               0.000000
 MO|    144               0.186195               5.066623               0.000000
 MO|    145               0.198228               5.394050               0.000000
 MO|    146               0.202502               5.510373               0.000000
 MO|    147               0.203335               5.533027               0.000000
 MO|    148               0.203401               5.534835               0.000000
 MO|    149               0.209003               5.687255               0.000000
 MO|    150               0.209339               5.696393               0.000000
 MO|    151               0.211830               5.764184               0.000000
 MO|    152               0.218928               5.957325               0.000000
 MO|    153               0.219679               5.977763               0.000000
 MO|    154               0.220979               6.013151               0.000000
 MO|    155               0.233321               6.348977               0.000000
 MO|    156               0.238181               6.481228               0.000000
 MO|    157               0.238767               6.497192               0.000000
 MO|    158               0.241807               6.579892               0.000000
 MO|    159               0.243720               6.631955               0.000000
 MO|    160               0.244159               6.643896               0.000000
 MO|    161               0.245845               6.689775               0.000000
 MO|    162               0.248727               6.768206               0.000000
 MO|    163               0.267189               7.270572               0.000000
 MO|    164               0.267455               7.277822               0.000000
 MO|    165               0.269622               7.336777               0.000000
 MO|    166               0.273298               7.436820               0.000000
 MO|    167               0.283441               7.712831               0.000000
 MO|    168               0.286223               7.788522               0.000000
 MO|    169               0.288686               7.855534               0.000000
 MO|    170               0.294876               8.023971               0.000000
 MO|    171               0.304348               8.281742               0.000000
 MO|    172               0.306830               8.349269               0.000000
 MO|    173               0.307723               8.373556               0.000000
 MO|    174               0.308489               8.394401               0.000000
 MO|    175               0.317780               8.647229               0.000000
 MO|    176               0.321724               8.754546               0.000000
 MO|    177               0.327718               8.917662               0.000000
 MO|    178               0.330189               8.984888               0.000000
 MO|    179               0.337857               9.193548               0.000000
 MO|    180               0.339876               9.248506               0.000000
 MO|    181               0.340920               9.276893               0.000000
 MO|    182               0.343119               9.336744               0.000000
 MO|    183               0.359753               9.789374               0.000000
 MO|    184               0.364497               9.918454               0.000000
 MO|    185               0.365459               9.944647               0.000000
 MO|    186               0.373922              10.174922               0.000000
 MO|    187               0.378281              10.293550               0.000000
 MO|    188               0.390567              10.627865               0.000000
 MO|    189               0.395300              10.756649               0.000000
 MO|    190               0.399046              10.858588               0.000000
 MO|    191               0.406000              11.047822               0.000000
 MO|    192               0.409072              11.131426               0.000000
 MO| Sum:                                                             184.000000
 MO| E(Fermi):           -0.077700 a.u.         -2.114311 eV
 MO| Band gap:            0.095500 a.u.          2.598679 eV

    13 Broy./Diag. 0.40E+00    0.3     0.00058625     -1063.0439724963 -9.55E-03
  Decoupling Energy:                                              -0.0000135435

 MO| EIGENVALUES AND OCCUPATION NUMBERS AFTER SCF STEP 13
 MO|
 MO|  Index      Eigenvalue [a.u.]        Eigenvalue [eV]             Occupation
 MO|      1              -9.796425            -266.574275               2.000000
 MO|      2              -9.796405            -266.573732               2.000000
 MO|      3              -9.796397            -266.573524               2.000000
 MO|      4              -9.796387            -266.573235               2.000000
 MO|      5              -9.793996            -266.508185               2.000000
 MO|      6              -9.793972            -266.507526               2.000000
 MO|      7              -9.793898            -266.505505               2.000000
 MO|      8              -9.793859            -266.504456               2.000000
 MO|      9              -9.793830            -266.503675               2.000000
 MO|     10              -9.793676            -266.499479               2.000000
 MO|     11              -9.793547            -266.495962               2.000000
 MO|     12              -9.793540            -266.495785               2.000000
 MO|     13              -9.793537            -266.495682               2.000000
 MO|     14              -9.793454            -266.493431               2.000000
 MO|     15              -9.785971            -266.289803               2.000000
 MO|     16              -9.785968            -266.289745               2.000000
 MO|     17              -9.785960            -266.289512               2.000000
 MO|     18              -9.785956            -266.289409               2.000000
 MO|     19              -9.785450            -266.275640               2.000000
 MO|     20              -9.785433            -266.275180               2.000000
 MO|     21              -9.784228            -266.242374               2.000000
 MO|     22              -9.784227            -266.242361               2.000000
 MO|     23              -9.784200            -266.241620               2.000000
 MO|     24              -9.784196            -266.241523               2.000000
 MO|     25              -9.779840            -266.122973               2.000000
 MO|     26              -9.779838            -266.122931               2.000000
 MO|     27              -9.779753            -266.120624               2.000000
 MO|     28              -9.779751            -266.120565               2.000000
 MO|     29              -0.835360             -22.731305               2.000000
 MO|     30              -0.810050             -22.042582               2.000000
 MO|     31              -0.801412             -21.807518               2.000000
 MO|     32              -0.774999             -21.088801               2.000000
 MO|     33              -0.761568             -20.723314               2.000000
 MO|     34              -0.751144             -20.439670               2.000000
 MO|     35              -0.732849             -19.941838               2.000000
 MO|     36              -0.716482             -19.496468               2.000000
 MO|     37              -0.697716             -18.985830               2.000000
 MO|     38              -0.686289             -18.674872               2.000000
 MO|     39              -0.672895             -18.310416               2.000000
 MO|     40              -0.672162             -18.290465               2.000000
 MO|     41              -0.655380             -17.833788               2.000000
 MO|     42              -0.619207             -16.849473               2.000000
 MO|     43              -0.610468             -16.611691               2.000000
 MO|     44              -0.587874             -15.996854               2.000000
 MO|     45              -0.580142             -15.786480               2.000000
 MO|     46              -0.574813             -15.641456               2.000000
 MO|     47              -0.560796             -15.260039               2.000000
 MO|     48              -0.534642             -14.548338               2.000000
 MO|     49              -0.509389             -13.861184               2.000000
 MO|     50              -0.508471             -13.836188               2.000000
 MO|     51              -0.506041             -13.770081               2.000000
 MO|     52              -0.486408             -13.235823               2.000000
 MO|     53              -0.477727             -12.999601               2.000000
 MO|     54              -0.462611             -12.588291               2.000000
 MO|     55              -0.445889             -12.133246               2.000000
 MO|     56              -0.426051             -11.593441               2.000000
 MO|     57              -0.423104             -11.513248               2.000000
 MO|     58              -0.419578             -11.417302               2.000000
 MO|     59              -0.419087             -11.403928               2.000000
 MO|     60              -0.410377             -11.166922               2.000000
 MO|     61              -0.406999             -11.075008               2.000000
 MO|     62              -0.400527             -10.898902               2.000000
 MO|     63              -0.398475             -10.843056               2.000000
 MO|     64              -0.383543             -10.436734               2.000000
 MO|     65              -0.375672             -10.222552               2.000000
 MO|     66              -0.374677             -10.195481               2.000000
 MO|     67              -0.371468             -10.108163               2.000000
 MO|     68              -0.369198             -10.046391               2.000000
 MO|     69              -0.357640              -9.731888               2.000000
 MO|     70              -0.354570              -9.648337               2.000000
 MO|     71              -0.349407              -9.507841               2.000000
 MO|     72              -0.345524              -9.402197               2.000000
 MO|     73              -0.343945              -9.359216               2.000000
 MO|     74              -0.333715              -9.080850               2.000000
 MO|     75              -0.322322              -8.770817               2.000000
 MO|     76              -0.320173              -8.712351               2.000000
 MO|     77              -0.317145              -8.629959               2.000000
 MO|     78              -0.303407              -8.256136               2.000000
 MO|     79              -0.302590              -8.233893               2.000000
 MO|     80              -0.299811              -8.158277               2.000000
 MO|     81              -0.293832              -7.995566               2.000000
 MO|     82              -0.292678              -7.964183               2.000000
 MO|     83              -0.269243              -7.326485               2.000000
 MO|     84              -0.259174              -7.052473               2.000000
 MO|     85              -0.256598              -6.982395               2.000000
 MO|     86              -0.251606              -6.846549               2.000000
 MO|     87              -0.233959              -6.366361               2.000000
 MO|     88              -0.226818              -6.172025               2.000000
 MO|     89              -0.220863              -6.009983               2.000000
 MO|     90              -0.194133              -5.282628               2.000000
 MO|     91              -0.184102              -5.009681               2.000000
 MO|     92              -0.162395              -4.418983               2.000000
 MO|     93              -0.066901              -1.820463               0.000000
 MO|     94              -0.065686              -1.787403               0.000000
 MO|     95              -0.056730              -1.543689               0.000000
 MO|     96              -0.036834              -1.002297               0.000000
 MO|     97              -0.017183              -0.467563               0.000000
 MO|     98              -0.016140              -0.439190               0.000000
 MO|     99              -0.004746              -0.129147               0.000000
 MO|    100              -0.002155              -0.058637               0.000000
 MO|    101               0.004826               0.131317               0.000000
 MO|    102               0.008316               0.226283               0.000000
 MO|    103               0.010998               0.299268               0.000000
 MO|    104               0.013106               0.356632               0.000000
 MO|    105               0.016184               0.440381               0.000000
 MO|    106               0.026595               0.723683               0.000000
 MO|    107               0.031167               0.848091               0.000000
 MO|    108               0.042486               1.156110               0.000000
 MO|    109               0.044688               1.216024               0.000000
 MO|    110               0.050269               1.367898               0.000000
 MO|    111               0.055340               1.505877               0.000000
 MO|    112               0.055715               1.516070               0.000000
 MO|    113               0.059900               1.629973               0.000000
 MO|    114               0.065754               1.789259               0.000000
 MO|    115               0.067093               1.825705               0.000000
 MO|    116               0.070373               1.914952               0.000000
 MO|    117               0.075527               2.055200               0.000000
 MO|    118               0.077096               2.097899               0.000000
 MO|    119               0.083984               2.285334               0.000000
 MO|    120               0.095061               2.586741               0.000000
 MO|    121               0.096014               2.612683               0.000000
 MO|    122               0.096833               2.634972               0.000000
 MO|    123               0.100048               2.722453               0.000000
 MO|    124               0.108772               2.959827               0.000000
 MO|    125               0.111722               3.040097               0.000000
 MO|    126               0.112572               3.063252               0.000000
 MO|    127               0.118997               3.238082               0.000000
 MO|    128               0.119648               3.255795               0.000000
 MO|    129               0.127660               3.473812               0.000000
 MO|    130               0.132792               3.613461               0.000000
 MO|    131               0.143318               3.899880               0.000000
 MO|    132               0.143802               3.913054               0.000000
 MO|    133               0.157635               4.289460               0.000000
 MO|    134               0.158777               4.320541               0.000000
 MO|    135               0.159793               4.348179               0.000000
 MO|    136               0.162218               4.414189               0.000000
 MO|    137               0.164889               4.486850               0.000000
 MO|    138               0.165825               4.512331               0.000000
 MO|    139               0.166478               4.530087               0.000000
 MO|    140               0.167154               4.548483               0.000000
 MO|    141               0.173970               4.733970               0.000000
 MO|    142               0.175951               4.787868               0.000000
 MO|    143               0.185680               5.052623               0.000000
 MO|    144               0.186570               5.076837               0.000000
 MO|    145               0.198672               5.406148               0.000000
 MO|    146               0.202938               5.522221               0.000000
 MO|    147               0.203768               5.544805               0.000000
 MO|    148               0.203836               5.546663               0.000000
 MO|    149               0.209434               5.698985               0.000000
 MO|    150               0.209671               5.705442               0.000000
 MO|    151               0.212274               5.776266               0.000000
 MO|    152               0.219351               5.968841               0.000000
 MO|    153               0.220133               5.990126               0.000000
 MO|    154               0.221409               6.024847               0.000000
 MO|    155               0.233768               6.361142               0.000000
 MO|    156               0.238584               6.492205               0.000000
 MO|    157               0.239213               6.509326               0.000000
 MO|    158               0.242241               6.591717               0.000000
 MO|    159               0.244164               6.644041               0.000000
 MO|    160               0.244559               6.654783               0.000000
 MO|    161               0.246257               6.700985               0.000000
 MO|    162               0.249164               6.780098               0.000000
 MO|    163               0.267607               7.281970               0.000000
 MO|    164               0.267861               7.288856               0.000000
 MO|    165               0.270027               7.347807               0.000000
 MO|    166               0.273765               7.449528               0.000000
 MO|    167               0.283856               7.724102               0.000000
 MO|    168               0.286628               7.799539               0.000000
 MO|    169               0.289086               7.866419               0.000000
 MO|    170               0.295317               8.035975               0.000000
 MO|    171               0.304769               8.293198               0.000000
 MO|    172               0.307254               8.360817               0.000000
 MO|    173               0.308102               8.383883               0.000000
 MO|    174               0.308924               8.406241               0.000000
 MO|    175               0.318159               8.657542               0.000000
 MO|    176               0.322191               8.767262               0.000000
 MO|    177               0.328102               8.928121               0.000000
 MO|    178               0.330631               8.996930               0.000000
 MO|    179               0.338247               9.204179               0.000000
 MO|    180               0.340324               9.260684               0.000000
 MO|    181               0.341316               9.287670               0.000000
 MO|    182               0.343560               9.348741               0.000000
 MO|    183               0.360205               9.801667               0.000000
 MO|    184               0.364960               9.931058               0.000000
 MO|    185               0.365918               9.957148               0.000000
 MO|    186               0.374296              10.185104               0.000000
 MO|    187               0.378682              10.304471               0.000000
 MO|    188               0.391018              10.640141               0.000000
 MO|    189               0.395744              10.768731               0.000000
 MO|    190               0.399447              10.869498               0.000000
 MO|    191               0.406428              11.059456               0.000000
 MO|    192               0.409451              11.141737               0.000000
 MO| Sum:                                                             184.000000
 MO| E(Fermi):           -0.077224 a.u.         -2.101382 eV
 MO| Band gap:            0.095494 a.u.          2.598520 eV

    14 Broy./Diag. 0.40E+00    0.3     0.00018573     -1063.0487298164 -4.76E-03
  Decoupling Energy:                                              -0.0000127409

 MO| EIGENVALUES AND OCCUPATION NUMBERS AFTER SCF STEP 14
 MO|
 MO|  Index      Eigenvalue [a.u.]        Eigenvalue [eV]             Occupation
 MO|      1              -9.796097            -266.565369               2.000000
 MO|      2              -9.796078            -266.564826               2.000000
 MO|      3              -9.796070            -266.564617               2.000000
 MO|      4              -9.796059            -266.564329               2.000000
 MO|      5              -9.793666            -266.499217               2.000000
 MO|      6              -9.793643            -266.498588               2.000000
 MO|      7              -9.793565            -266.496445               2.000000
 MO|      8              -9.793531            -266.495543               2.000000
 MO|      9              -9.793503            -266.494780               2.000000
 MO|     10              -9.793350            -266.490612               2.000000
 MO|     11              -9.793219            -266.487050               2.000000
 MO|     12              -9.793212            -266.486839               2.000000
 MO|     13              -9.793211            -266.486820               2.000000
 MO|     14              -9.793122            -266.484390               2.000000
 MO|     15              -9.785701            -266.282469               2.000000
 MO|     16              -9.785699            -266.282414               2.000000
 MO|     17              -9.785691            -266.282181               2.000000
 MO|     18              -9.785687            -266.282076               2.000000
 MO|     19              -9.785174            -266.268115               2.000000
 MO|     20              -9.785157            -266.267655               2.000000
 MO|     21              -9.783946            -266.234721               2.000000
 MO|     22              -9.783946            -266.234708               2.000000
 MO|     23              -9.783919            -266.233968               2.000000
 MO|     24              -9.783915            -266.233871               2.000000
 MO|     25              -9.779554            -266.115189               2.000000
 MO|     26              -9.779552            -266.115148               2.000000
 MO|     27              -9.779467            -266.112841               2.000000
 MO|     28              -9.779465            -266.112782               2.000000
 MO|     29              -0.834987             -22.721145               2.000000
 MO|     30              -0.809689             -22.032749               2.000000
 MO|     31              -0.801046             -21.797565               2.000000
 MO|     32              -0.774643             -21.079106               2.000000
 MO|     33              -0.761217             -20.713764               2.000000
 MO|     34              -0.750785             -20.429902               2.000000
 MO|     35              -0.732505             -19.932465               2.000000
 MO|     36              -0.716132             -19.486940               2.000000
 MO|     37              -0.697363             -18.976204               2.000000
 MO|     38              -0.685936             -18.665271               2.000000
 MO|     39              -0.672548             -18.300961               2.000000
 MO|     40              -0.671816             -18.281042               2.000000
 MO|     41              -0.655031             -17.824306               2.000000
 MO|     42              -0.618874             -16.840414               2.000000
 MO|     43              -0.610128             -16.602418               2.000000
 MO|     44              -0.587529             -15.987467               2.000000
 MO|     45              -0.579795             -15.777031               2.000000
 MO|     46              -0.574465             -15.631991               2.000000
 MO|     47              -0.560456             -15.250793               2.000000
 MO|     48              -0.534302             -14.539110               2.000000
 MO|     49              -0.509056             -13.852107               2.000000
 MO|     50              -0.508136             -13.827097               2.000000
 MO|     51              -0.505705             -13.760939               2.000000
 MO|     52              -0.486065             -13.226514               2.000000
 MO|     53              -0.477389             -12.990404               2.000000
 MO|     54              -0.462283             -12.579350               2.000000
 MO|     55              -0.445563             -12.124378               2.000000
 MO|     56              -0.425726             -11.584593               2.000000
 MO|     57              -0.422770             -11.504145               2.000000
 MO|     58              -0.419258             -11.408577               2.000000
 MO|     59              -0.418746             -11.394652               2.000000
 MO|     60              -0.410048             -11.157978               2.000000
 MO|     61              -0.406650             -11.065512               2.000000
 MO|     62              -0.400199             -10.889961               2.000000
 MO|     63              -0.398143             -10.834020               2.000000
 MO|     64              -0.383208             -10.427629               2.000000
 MO|     65              -0.375345             -10.213650               2.000000
 MO|     66              -0.374340             -10.186301               2.000000
 MO|     67              -0.371142             -10.099295               2.000000
 MO|     68              -0.368848             -10.036877               2.000000
 MO|     69              -0.357301              -9.722647               2.000000
 MO|     70              -0.354218              -9.638757               2.000000
 MO|     71              -0.349037              -9.497786               2.000000
 MO|     72              -0.345193              -9.393177               2.000000
 MO|     73              -0.343603              -9.349901               2.000000
 MO|     74              -0.333397              -9.072195               2.000000
 MO|     75              -0.322009              -8.762308               2.000000
 MO|     76              -0.319854              -8.703670               2.000000
 MO|     77              -0.316788              -8.620251               2.000000
 MO|     78              -0.303075              -8.247090               2.000000
 MO|     79              -0.302244              -8.224480               2.000000
 MO|     80              -0.299483              -8.149343               2.000000
 MO|     81              -0.293501              -7.986571               2.000000
 MO|     82              -0.292316              -7.954316               2.000000
 MO|     83              -0.268899              -7.317110               2.000000
 MO|     84              -0.258832              -7.043184               2.000000
 MO|     85              -0.256245              -6.972776               2.000000
 MO|     86              -0.251245              -6.836719               2.000000
 MO|     87              -0.233611              -6.356882               2.000000
 MO|     88              -0.226456              -6.162183               2.000000
 MO|     89              -0.220503              -6.000184               2.000000
 MO|     90              -0.193775              -5.272888               2.000000
 MO|     91              -0.183759              -5.000337               2.000000
 MO|     92              -0.162038              -4.409287               2.000000
 MO|     93              -0.066542              -1.810710               0.000000
 MO|     94              -0.065336              -1.777877               0.000000
 MO|     95              -0.056373              -1.533995               0.000000
 MO|     96              -0.036472              -0.992443               0.000000
 MO|     97              -0.016826              -0.457869               0.000000
 MO|     98              -0.015778              -0.429333               0.000000
 MO|     99              -0.004234              -0.115225               0.000000
 MO|    100              -0.001629              -0.044318               0.000000
 MO|    101               0.005351               0.145596               0.000000
 MO|    102               0.008682               0.236254               0.000000
 MO|    103               0.011599               0.315614               0.000000
 MO|    104               0.013458               0.366210               0.000000
 MO|    105               0.016649               0.453043               0.000000
 MO|    106               0.027118               0.737928               0.000000
 MO|    107               0.031703               0.862673               0.000000
 MO|    108               0.043049               1.171418               0.000000
 MO|    109               0.045244               1.231155               0.000000
 MO|    110               0.050810               1.382619               0.000000
 MO|    111               0.056028               1.524609               0.000000
 MO|    112               0.056401               1.534739               0.000000
 MO|    113               0.060462               1.645256               0.000000
 MO|    114               0.066296               1.803995               0.000000
 MO|    115               0.067607               1.839686               0.000000
 MO|    116               0.070796               1.926462               0.000000
 MO|    117               0.076081               2.070260               0.000000
 MO|    118               0.077640               2.112692               0.000000
 MO|    119               0.084448               2.297949               0.000000
 MO|    120               0.095582               2.600915               0.000000
 MO|    121               0.096572               2.627866               0.000000
 MO|    122               0.097203               2.645041               0.000000
 MO|    123               0.100518               2.735225               0.000000
 MO|    124               0.109271               2.973426               0.000000
 MO|    125               0.112246               3.054381               0.000000
 MO|    126               0.113106               3.077765               0.000000
 MO|    127               0.119482               3.251283               0.000000
 MO|    128               0.120262               3.272485               0.000000
 MO|    129               0.128099               3.485744               0.000000
 MO|    130               0.133310               3.627555               0.000000
 MO|    131               0.144067               3.920268               0.000000
 MO|    132               0.144281               3.926087               0.000000
 MO|    133               0.158639               4.316790               0.000000
 MO|    134               0.159258               4.333617               0.000000
 MO|    135               0.160279               4.361400               0.000000
 MO|    136               0.162692               4.427068               0.000000
 MO|    137               0.165405               4.500910               0.000000
 MO|    138               0.166306               4.525408               0.000000
 MO|    139               0.166873               4.540857               0.000000
 MO|    140               0.167979               4.570935               0.000000
 MO|    141               0.174449               4.746995               0.000000
 MO|    142               0.176408               4.800308               0.000000
 MO|    143               0.186195               5.066636               0.000000
 MO|    144               0.187153               5.092680               0.000000
 MO|    145               0.199099               5.417765               0.000000
 MO|    146               0.203478               5.536918               0.000000
 MO|    147               0.204262               5.558263               0.000000
 MO|    148               0.204276               5.558623               0.000000
 MO|    149               0.210102               5.717162               0.000000
 MO|    150               0.210159               5.718720               0.000000
 MO|    151               0.212745               5.789094               0.000000
 MO|    152               0.219882               5.983305               0.000000
 MO|    153               0.220574               6.002121               0.000000
 MO|    154               0.221849               6.036821               0.000000
 MO|    155               0.234228               6.373656               0.000000
 MO|    156               0.239094               6.506069               0.000000
 MO|    157               0.239615               6.520267               0.000000
 MO|    158               0.242735               6.605152               0.000000
 MO|    159               0.244749               6.659946               0.000000
 MO|    160               0.245068               6.668634               0.000000
 MO|    161               0.246712               6.713373               0.000000
 MO|    162               0.249630               6.792764               0.000000
 MO|    163               0.268148               7.296668               0.000000
 MO|    164               0.268402               7.303588               0.000000
 MO|    165               0.270496               7.360578               0.000000
 MO|    166               0.274301               7.464104               0.000000
 MO|    167               0.284262               7.735165               0.000000
 MO|    168               0.287121               7.812969               0.000000
 MO|    169               0.289625               7.881105               0.000000
 MO|    170               0.295718               8.046909               0.000000
 MO|    171               0.305300               8.307634               0.000000
 MO|    172               0.307648               8.371534               0.000000
 MO|    173               0.308621               8.398011               0.000000
 MO|    174               0.309283               8.416014               0.000000
 MO|    175               0.318634               8.670476               0.000000
 MO|    176               0.322657               8.779934               0.000000
 MO|    177               0.328539               8.939991               0.000000
 MO|    178               0.331058               9.008555               0.000000
 MO|    179               0.338851               9.220613               0.000000
 MO|    180               0.340803               9.273708               0.000000
 MO|    181               0.341733               9.299023               0.000000
 MO|    182               0.343925               9.358669               0.000000
 MO|    183               0.360673               9.814416               0.000000
 MO|    184               0.365375               9.942367               0.000000
 MO|    185               0.366492               9.972744               0.000000
 MO|    186               0.374903              10.201640               0.000000
 MO|    187               0.379262              10.320243               0.000000
 MO|    188               0.391513              10.653604               0.000000
 MO|    189               0.396152              10.779856               0.000000
 MO|    190               0.399885              10.881414               0.000000
 MO|    191               0.406867              11.071413               0.000000
 MO|    192               0.409990              11.156401               0.000000
 MO| Sum:                                                             184.000000
 MO| E(Fermi):           -0.076866 a.u.         -2.091634 eV
 MO| Band gap:            0.095496 a.u.          2.598577 eV

    15 Broy./Diag. 0.40E+00    0.3     0.00022638     -1063.0460907968  2.64E-03
  Decoupling Energy:                                              -0.0000131178

 MO| EIGENVALUES AND OCCUPATION NUMBERS AFTER SCF STEP 15
 MO|
 MO|  Index      Eigenvalue [a.u.]        Eigenvalue [eV]             Occupation
 MO|      1              -9.796221            -266.568720               2.000000
 MO|      2              -9.796201            -266.568177               2.000000
 MO|      3              -9.796193            -266.567968               2.000000
 MO|      4              -9.796182            -266.567680               2.000000
 MO|      5              -9.793783            -266.502383               2.000000
 MO|      6              -9.793761            -266.501790               2.000000
 MO|      7              -9.793678            -266.499535               2.000000
 MO|      8              -9.793648            -266.498717               2.000000
 MO|      9              -9.793618            -266.497904               2.000000
 MO|     10              -9.793465            -266.493736               2.000000
 MO|     11              -9.793332            -266.490120               2.000000
 MO|     12              -9.793325            -266.489936               2.000000
 MO|     13              -9.793325            -266.489918               2.000000
 MO|     14              -9.793235            -266.487466               2.000000
 MO|     15              -9.785803            -266.285249               2.000000
 MO|     16              -9.785801            -266.285178               2.000000
 MO|     17              -9.785792            -266.284945               2.000000
 MO|     18              -9.785789            -266.284853               2.000000
 MO|     19              -9.785312            -266.271889               2.000000
 MO|     20              -9.785295            -266.271432               2.000000
 MO|     21              -9.784053            -266.237632               2.000000
 MO|     22              -9.784053            -266.237619               2.000000
 MO|     23              -9.784026            -266.236878               2.000000
 MO|     24              -9.784022            -266.236781               2.000000
 MO|     25              -9.779653            -266.117884               2.000000
 MO|     26              -9.779651            -266.117842               2.000000
 MO|     27              -9.779566            -266.115535               2.000000
 MO|     28              -9.779564            -266.115476               2.000000
 MO|     29              -0.835095             -22.724100               2.000000
 MO|     30              -0.809800             -22.035779               2.000000
 MO|     31              -0.801153             -21.800475               2.000000
 MO|     32              -0.774750             -21.082018               2.000000
 MO|     33              -0.761331             -20.716883               2.000000
 MO|     34              -0.750893             -20.432824               2.000000
 MO|     35              -0.732615             -19.935466               2.000000
 MO|     36              -0.716241             -19.489911               2.000000
 MO|     37              -0.697476             -18.979277               2.000000
 MO|     38              -0.686047             -18.668288               2.000000
 MO|     39              -0.672659             -18.303991               2.000000
 MO|     40              -0.671927             -18.284069               2.000000
 MO|     41              -0.655141             -17.827294               2.000000
 MO|     42              -0.618987             -16.843488               2.000000
 MO|     43              -0.610241             -16.605512               2.000000
 MO|     44              -0.587643             -15.990581               2.000000
 MO|     45              -0.579908             -15.780100               2.000000
 MO|     46              -0.574577             -15.635029               2.000000
 MO|     47              -0.560569             -15.253860               2.000000
 MO|     48              -0.534416             -14.542209               2.000000
 MO|     49              -0.509173             -13.855308               2.000000
 MO|     50              -0.508252             -13.830231               2.000000
 MO|     51              -0.505819             -13.764035               2.000000
 MO|     52              -0.486179             -13.229604               2.000000
 MO|     53              -0.477502             -12.993491               2.000000
 MO|     54              -0.462399             -12.582507               2.000000
 MO|     55              -0.445677             -12.127492               2.000000
 MO|     56              -0.425844             -11.587810               2.000000
 MO|     57              -0.422882             -11.507201               2.000000
 MO|     58              -0.419373             -11.411719               2.000000
 MO|     59              -0.418859             -11.397730               2.000000
 MO|     60              -0.410165             -11.161165               2.000000
 MO|     61              -0.406760             -11.068511               2.000000
 MO|     62              -0.400311             -10.893018               2.000000
 MO|     63              -0.398257             -10.837134               2.000000
 MO|     64              -0.383327             -10.430849               2.000000
 MO|     65              -0.375457             -10.216713               2.000000
 MO|     66              -0.374453             -10.189376               2.000000
 MO|     67              -0.371258             -10.102442               2.000000
 MO|     68              -0.368961             -10.039940               2.000000
 MO|     69              -0.357413              -9.725715               2.000000
 MO|     70              -0.354327              -9.641719               2.000000
 MO|     71              -0.349139              -9.500566               2.000000
 MO|     72              -0.345309              -9.396349               2.000000
 MO|     73              -0.343715              -9.352971               2.000000
 MO|     74              -0.333513              -9.075353               2.000000
 MO|     75              -0.322125              -8.765477               2.000000
 MO|     76              -0.319969              -8.706799               2.000000
 MO|     77              -0.316892              -8.623065               2.000000
 MO|     78              -0.303189              -8.250200               2.000000
 MO|     79              -0.302351              -8.227399               2.000000
 MO|     80              -0.299598              -8.152479               2.000000
 MO|     81              -0.293616              -7.989705               2.000000
 MO|     82              -0.292418              -7.957087               2.000000
 MO|     83              -0.269012              -7.320201               2.000000
 MO|     84              -0.258946              -7.046287               2.000000
 MO|     85              -0.256348              -6.975590               2.000000
 MO|     86              -0.251348              -6.839532               2.000000
 MO|     87              -0.233717              -6.359755               2.000000
 MO|     88              -0.226560              -6.165001               2.000000
 MO|     89              -0.220607              -6.003026               2.000000
 MO|     90              -0.193878              -5.275680               2.000000
 MO|     91              -0.183865              -5.003213               2.000000
 MO|     92              -0.162144              -4.412150               2.000000
 MO|     93              -0.066644              -1.813462               0.000000
 MO|     94              -0.065426              -1.780331               0.000000
 MO|     95              -0.056471              -1.536658               0.000000
 MO|     96              -0.036568              -0.995069               0.000000
 MO|     97              -0.016927              -0.460606               0.000000
 MO|     98              -0.015846              -0.431184               0.000000
 MO|     99              -0.004147              -0.112851               0.000000
 MO|    100              -0.001522              -0.041422               0.000000
 MO|    101               0.005416               0.147376               0.000000
 MO|    102               0.008595               0.233872               0.000000
 MO|    103               0.011695               0.318227               0.000000
 MO|    104               0.013368               0.363767               0.000000
 MO|    105               0.016735               0.455383               0.000000
 MO|    106               0.027223               0.740784               0.000000
 MO|    107               0.031802               0.865390               0.000000
 MO|    108               0.043131               1.173656               0.000000
 MO|    109               0.045350               1.234024               0.000000
 MO|    110               0.050927               1.385802               0.000000
 MO|    111               0.056142               1.527701               0.000000
 MO|    112               0.056501               1.537469               0.000000
 MO|    113               0.060515               1.646692               0.000000
 MO|    114               0.066369               1.806002               0.000000
 MO|    115               0.067720               1.842768               0.000000
 MO|    116               0.070785               1.926159               0.000000
 MO|    117               0.076158               2.072378               0.000000
 MO|    118               0.077727               2.115058               0.000000
 MO|    119               0.084529               2.300142               0.000000
 MO|    120               0.095666               2.603195               0.000000
 MO|    121               0.096578               2.628029               0.000000
 MO|    122               0.097153               2.643678               0.000000
 MO|    123               0.100580               2.736911               0.000000
 MO|    124               0.109356               2.975716               0.000000
 MO|    125               0.112266               3.054922               0.000000
 MO|    126               0.113201               3.080347               0.000000
 MO|    127               0.119496               3.251654               0.000000
 MO|    128               0.120307               3.273721               0.000000
 MO|    129               0.128117               3.486250               0.000000
 MO|    130               0.133429               3.630782               0.000000
 MO|    131               0.144199               3.923851               0.000000
 MO|    132               0.144368               3.928447               0.000000
 MO|    133               0.158870               4.323067               0.000000
 MO|    134               0.159289               4.334487               0.000000
 MO|    135               0.160289               4.361683               0.000000
 MO|    136               0.162760               4.428935               0.000000
 MO|    137               0.165434               4.501680               0.000000
 MO|    138               0.166334               4.526180               0.000000
 MO|    139               0.166806               4.539023               0.000000
 MO|    140               0.168194               4.576800               0.000000
 MO|    141               0.174498               4.748328               0.000000
 MO|    142               0.176459               4.801688               0.000000
 MO|    143               0.186281               5.068973               0.000000
 MO|    144               0.187294               5.096528               0.000000
 MO|    145               0.199077               5.417154               0.000000
 MO|    146               0.203547               5.538786               0.000000
 MO|    147               0.204262               5.558263               0.000000
 MO|    148               0.204288               5.558965               0.000000
 MO|    149               0.210259               5.721436               0.000000
 MO|    150               0.210273               5.721828               0.000000
 MO|    151               0.212752               5.789279               0.000000
 MO|    152               0.219955               5.985283               0.000000
 MO|    153               0.220551               6.001509               0.000000
 MO|    154               0.221850               6.036854               0.000000
 MO|    155               0.234227               6.373649               0.000000
 MO|    156               0.239163               6.507962               0.000000
 MO|    157               0.239567               6.518940               0.000000
 MO|    158               0.242777               6.606299               0.000000
 MO|    159               0.244850               6.662700               0.000000
 MO|    160               0.245138               6.670536               0.000000
 MO|    161               0.246733               6.713957               0.000000
 MO|    162               0.249638               6.792990               0.000000
 MO|    163               0.268219               7.298607               0.000000
 MO|    164               0.268508               7.306478               0.000000
 MO|    165               0.270520               7.361220               0.000000
 MO|    166               0.274338               7.465106               0.000000
 MO|    167               0.284241               7.734594               0.000000
 MO|    168               0.287169               7.814273               0.000000
 MO|    169               0.289726               7.883853               0.000000
 MO|    170               0.295675               8.045719               0.000000
 MO|    171               0.305376               8.309709               0.000000
 MO|    172               0.307620               8.370774               0.000000
 MO|    173               0.308719               8.400681               0.000000
 MO|    174               0.309217               8.414220               0.000000
 MO|    175               0.318681               8.671763               0.000000
 MO|    176               0.322643               8.779549               0.000000
 MO|    177               0.328563               8.940666               0.000000
 MO|    178               0.331035               9.007932               0.000000
 MO|    179               0.338993               9.224457               0.000000
 MO|    180               0.340828               9.274405               0.000000
 MO|    181               0.341739               9.299200               0.000000
 MO|    182               0.343861               9.356943               0.000000
 MO|    183               0.360679               9.814588               0.000000
 MO|    184               0.365334               9.941233               0.000000
 MO|    185               0.366581               9.975171               0.000000
 MO|    186               0.375068              10.206131               0.000000
 MO|    187               0.379361              10.322925               0.000000
 MO|    188               0.391527              10.653992               0.000000
 MO|    189               0.396110              10.778695               0.000000
 MO|    190               0.399886              10.881441               0.000000
 MO|    191               0.406866              11.071386               0.000000
 MO|    192               0.410114              11.159765               0.000000
 MO| Sum:                                                             184.000000
 MO| E(Fermi):           -0.076967 a.u.         -2.094380 eV
 MO| Band gap:            0.095500 a.u.          2.598688 eV

    16 Broy./Diag. 0.40E+00    0.3     0.00011863     -1063.0453385696  7.52E-04
  Decoupling Energy:                                              -0.0000134475

 MO| EIGENVALUES AND OCCUPATION NUMBERS AFTER SCF STEP 16
 MO|
 MO|  Index      Eigenvalue [a.u.]        Eigenvalue [eV]             Occupation
 MO|      1              -9.796436            -266.574572               2.000000
 MO|      2              -9.796416            -266.574029               2.000000
 MO|      3              -9.796408            -266.573820               2.000000
 MO|      4              -9.796397            -266.573531               2.000000
 MO|      5              -9.794011            -266.508584               2.000000
 MO|      6              -9.793988            -266.507961               2.000000
 MO|      7              -9.793909            -266.505807               2.000000
 MO|      8              -9.793875            -266.504894               2.000000
 MO|      9              -9.793846            -266.504102               2.000000
 MO|     10              -9.793692            -266.499923               2.000000
 MO|     11              -9.793561            -266.496349               2.000000
 MO|     12              -9.793554            -266.496153               2.000000
 MO|     13              -9.793553            -266.496128               2.000000
 MO|     14              -9.793465            -266.493742               2.000000
 MO|     15              -9.786018            -266.291087               2.000000
 MO|     16              -9.786016            -266.291026               2.000000
 MO|     17              -9.786007            -266.290793               2.000000
 MO|     18              -9.786003            -266.290693               2.000000
 MO|     19              -9.785506            -266.277158               2.000000
 MO|     20              -9.785489            -266.276699               2.000000
 MO|     21              -9.784261            -266.243270               2.000000
 MO|     22              -9.784260            -266.243256               2.000000
 MO|     23              -9.784233            -266.242516               2.000000
 MO|     24              -9.784229            -266.242419               2.000000
 MO|     25              -9.779870            -266.123808               2.000000
 MO|     26              -9.779869            -266.123766               2.000000
 MO|     27              -9.779784            -266.121459               2.000000
 MO|     28              -9.779782            -266.121400               2.000000
 MO|     29              -0.835335             -22.730618               2.000000
 MO|     30              -0.810033             -22.042112               2.000000
 MO|     31              -0.801392             -21.806994               2.000000
 MO|     32              -0.774986             -21.088444               2.000000
 MO|     33              -0.761561             -20.723133               2.000000
 MO|     34              -0.751131             -20.439326               2.000000
 MO|     35              -0.732846             -19.941758               2.000000
 MO|     36              -0.716477             -19.496338               2.000000
 MO|     37              -0.697710             -18.985657               2.000000
 MO|     38              -0.686283             -18.674700               2.000000
 MO|     39              -0.672893             -18.310342               2.000000
 MO|     40              -0.672162             -18.290454               2.000000
 MO|     41              -0.655378             -17.833736               2.000000
 MO|     42              -0.619217             -16.849762               2.000000
 MO|     43              -0.610473             -16.611823               2.000000
 MO|     44              -0.587876             -15.996923               2.000000
 MO|     45              -0.580144             -15.786520               2.000000
 MO|     46              -0.574813             -15.641463               2.000000
 MO|     47              -0.560804             -15.260255               2.000000
 MO|     48              -0.534650             -14.548555               2.000000
 MO|     49              -0.509400             -13.861487               2.000000
 MO|     50              -0.508485             -13.836575               2.000000
 MO|     51              -0.506053             -13.770389               2.000000
 MO|     52              -0.486412             -13.235953               2.000000
 MO|     53              -0.477736             -12.999856               2.000000
 MO|     54              -0.462631             -12.588841               2.000000
 MO|     55              -0.445908             -12.133777               2.000000
 MO|     56              -0.426075             -11.594094               2.000000
 MO|     57              -0.423115             -11.513533               2.000000
 MO|     58              -0.419600             -11.417909               2.000000
 MO|     59              -0.419093             -11.404111               2.000000
 MO|     60              -0.410392             -11.167340               2.000000
 MO|     61              -0.406980             -11.074483               2.000000
 MO|     62              -0.400542             -10.899314               2.000000
 MO|     63              -0.398470             -10.842925               2.000000
 MO|     64              -0.383558             -10.437138               2.000000
 MO|     65              -0.375690             -10.223040               2.000000
 MO|     66              -0.374688             -10.195766               2.000000
 MO|     67              -0.371487             -10.108673               2.000000
 MO|     68              -0.369196             -10.046323               2.000000
 MO|     69              -0.357649              -9.732120               2.000000
 MO|     70              -0.354550              -9.647788               2.000000
 MO|     71              -0.349371              -9.506869               2.000000
 MO|     72              -0.345537              -9.402544               2.000000
 MO|     73              -0.343948              -9.359308               2.000000
 MO|     74              -0.333742              -9.081577               2.000000
 MO|     75              -0.322352              -8.771654               2.000000
 MO|     76              -0.320199              -8.713070               2.000000
 MO|     77              -0.317120              -8.629278               2.000000
 MO|     78              -0.303423              -8.256547               2.000000
 MO|     79              -0.302575              -8.233488               2.000000
 MO|     80              -0.299830              -8.158790               2.000000
 MO|     81              -0.293846              -7.995966               2.000000
 MO|     82              -0.292648              -7.963369               2.000000
 MO|     83              -0.269246              -7.326567               2.000000
 MO|     84              -0.259181              -7.052682               2.000000
 MO|     85              -0.256576              -6.981799               2.000000
 MO|     86              -0.251578              -6.845774               2.000000
 MO|     87              -0.233943              -6.365925               2.000000
 MO|     88              -0.226787              -6.171198               2.000000
 MO|     89              -0.220835              -6.009235               2.000000
 MO|     90              -0.194108              -5.281939               2.000000
 MO|     91              -0.184090              -5.009353               2.000000
 MO|     92              -0.162369              -4.418293               2.000000
 MO|     93              -0.066865              -1.819502               0.000000
 MO|     94              -0.065632              -1.785945               0.000000
 MO|     95              -0.056693              -1.542697               0.000000
 MO|     96              -0.036786              -1.001006               0.000000
 MO|     97              -0.017149              -0.466652               0.000000
 MO|     98              -0.016025              -0.436076               0.000000
 MO|     99              -0.004183              -0.113819               0.000000
 MO|    100              -0.001538              -0.041854               0.000000
 MO|    101               0.005347               0.145488               0.000000
 MO|    102               0.008384               0.228130               0.000000
 MO|    103               0.011644               0.316851               0.000000
 MO|    104               0.013160               0.358093               0.000000
 MO|    105               0.016700               0.454443               0.000000
 MO|    106               0.027192               0.739935               0.000000
 MO|    107               0.031774               0.864627               0.000000
 MO|    108               0.043066               1.171879               0.000000
 MO|    109               0.045301               1.232701               0.000000
 MO|    110               0.050926               1.385754               0.000000
 MO|    111               0.056049               1.525174               0.000000
 MO|    112               0.056390               1.534445               0.000000
 MO|    113               0.060404               1.643684               0.000000
 MO|    114               0.066298               1.804061               0.000000
 MO|    115               0.067708               1.842439               0.000000
 MO|    116               0.070645               1.922359               0.000000
 MO|    117               0.076082               2.070301               0.000000
 MO|    118               0.077675               2.113657               0.000000
 MO|    119               0.084493               2.299178               0.000000
 MO|    120               0.095628               2.602172               0.000000
 MO|    121               0.096420               2.623728               0.000000
 MO|    122               0.096991               2.639252               0.000000
 MO|    123               0.100505               2.734867               0.000000
 MO|    124               0.109317               2.974658               0.000000
 MO|    125               0.112124               3.051047               0.000000
 MO|    126               0.113164               3.079343               0.000000
 MO|    127               0.119374               3.248322               0.000000
 MO|    128               0.120170               3.269996               0.000000
 MO|    129               0.128020               3.483596               0.000000
 MO|    130               0.133415               3.630413               0.000000
 MO|    131               0.144087               3.920809               0.000000
 MO|    132               0.144346               3.927845               0.000000
 MO|    133               0.158778               4.320579               0.000000
 MO|    134               0.159189               4.331745               0.000000
 MO|    135               0.160154               4.358016               0.000000
 MO|    136               0.162718               4.427792               0.000000
 MO|    137               0.165321               4.498617               0.000000
 MO|    138               0.166240               4.523611               0.000000
 MO|    139               0.166610               4.533697               0.000000
 MO|    140               0.168209               4.577206               0.000000
 MO|    141               0.174427               4.746413               0.000000
 MO|    142               0.176400               4.800092               0.000000
 MO|    143               0.186239               5.067825               0.000000
 MO|    144               0.187303               5.096779               0.000000
 MO|    145               0.198921               5.412928               0.000000
 MO|    146               0.203463               5.536503               0.000000
 MO|    147               0.204126               5.554558               0.000000
 MO|    148               0.204185               5.556145               0.000000
 MO|    149               0.210253               5.721278               0.000000
 MO|    150               0.210290               5.722270               0.000000
 MO|    151               0.212629               5.785927               0.000000
 MO|    152               0.219908               5.984008               0.000000
 MO|    153               0.220397               5.997317               0.000000
 MO|    154               0.221726               6.033461               0.000000
 MO|    155               0.234094               6.370026               0.000000
 MO|    156               0.239115               6.506657               0.000000
 MO|    157               0.239397               6.514322               0.000000
 MO|    158               0.242682               6.603704               0.000000
 MO|    159               0.244792               6.661127               0.000000
 MO|    160               0.245072               6.668744               0.000000
 MO|    161               0.246636               6.711318               0.000000
 MO|    162               0.249508               6.789458               0.000000
 MO|    163               0.268153               7.296824               0.000000
 MO|    164               0.268491               7.306018               0.000000
 MO|    165               0.270425               7.358641               0.000000
 MO|    166               0.274232               7.462220               0.000000
 MO|    167               0.284107               7.730956               0.000000
 MO|    168               0.287095               7.812263               0.000000
 MO|    169               0.289723               7.883750               0.000000
 MO|    170               0.295512               8.041302               0.000000
 MO|    171               0.305330               8.308459               0.000000
 MO|    172               0.307468               8.366617               0.000000
 MO|    173               0.308679               8.399572               0.000000
 MO|    174               0.309038               8.409352               0.000000
 MO|    175               0.318618               8.670040               0.000000
 MO|    176               0.322498               8.775606               0.000000
 MO|    177               0.328473               8.938211               0.000000
 MO|    178               0.330887               9.003887               0.000000
 MO|    179               0.338982               9.224164               0.000000
 MO|    180               0.340698               9.270871               0.000000
 MO|    181               0.341629               9.296202               0.000000
 MO|    182               0.343681               9.352034               0.000000
 MO|    183               0.360555               9.811208               0.000000
 MO|    184               0.365161               9.936535               0.000000
 MO|    185               0.366496               9.972865               0.000000
 MO|    186               0.375094              10.206825               0.000000
 MO|    187               0.379318              10.321768               0.000000
 MO|    188               0.391411              10.650848               0.000000
 MO|    189               0.395944              10.774172               0.000000
 MO|    190               0.399776              10.878464               0.000000
 MO|    191               0.406743              11.068041               0.000000
 MO|    192               0.410084              11.158954               0.000000
 MO| Sum:                                                             184.000000
 MO| E(Fermi):           -0.077189 a.u.         -2.100411 eV
 MO| Band gap:            0.095504 a.u.          2.598791 eV

    17 Broy./Diag. 0.40E+00    0.3     0.00008326     -1063.0446960228  6.43E-04
  Decoupling Energy:                                              -0.0000131868

 MO| EIGENVALUES AND OCCUPATION NUMBERS AFTER SCF STEP 17
 MO|
 MO|  Index      Eigenvalue [a.u.]        Eigenvalue [eV]             Occupation
 MO|      1              -9.796506            -266.576475               2.000000
 MO|      2              -9.796486            -266.575932               2.000000
 MO|      3              -9.796478            -266.575723               2.000000
 MO|      4              -9.796467            -266.575434               2.000000
 MO|      5              -9.794076            -266.510364               2.000000
 MO|      6              -9.794053            -266.509725               2.000000
 MO|      7              -9.793976            -266.507634               2.000000
 MO|      8              -9.793940            -266.506654               2.000000
 MO|      9              -9.793911            -266.505863               2.000000
 MO|     10              -9.793757            -266.501674               2.000000
 MO|     11              -9.793626            -266.498125               2.000000
 MO|     12              -9.793620            -266.497944               2.000000
 MO|     13              -9.793617            -266.497875               2.000000
 MO|     14              -9.793532            -266.495564               2.000000
 MO|     15              -9.786075            -266.292648               2.000000
 MO|     16              -9.786073            -266.292590               2.000000
 MO|     17              -9.786064            -266.292357               2.000000
 MO|     18              -9.786061            -266.292254               2.000000
 MO|     19              -9.785554            -266.278469               2.000000
 MO|     20              -9.785537            -266.278009               2.000000
 MO|     21              -9.784322            -266.244942               2.000000
 MO|     22              -9.784322            -266.244928               2.000000
 MO|     23              -9.784294            -266.244188               2.000000
 MO|     24              -9.784291            -266.244091               2.000000
 MO|     25              -9.779927            -266.125339               2.000000
 MO|     26              -9.779925            -266.125297               2.000000
 MO|     27              -9.779840            -266.122990               2.000000
 MO|     28              -9.779838            -266.122931               2.000000
 MO|     29              -0.835409             -22.732640               2.000000
 MO|     30              -0.810105             -22.044067               2.000000
 MO|     31              -0.801465             -21.808974               2.000000
 MO|     32              -0.775058             -21.090401               2.000000
 MO|     33              -0.761630             -20.725015               2.000000
 MO|     34              -0.751203             -20.441264               2.000000
 MO|     35              -0.732914             -19.943606               2.000000
 MO|     36              -0.716548             -19.498272               2.000000
 MO|     37              -0.697781             -18.987581               2.000000
 MO|     38              -0.686353             -18.676602               2.000000
 MO|     39              -0.672962             -18.312229               2.000000
 MO|     40              -0.672231             -18.292337               2.000000
 MO|     41              -0.655449             -17.835662               2.000000
 MO|     42              -0.619283             -16.851555               2.000000
 MO|     43              -0.610541             -16.613659               2.000000
 MO|     44              -0.587945             -15.998810               2.000000
 MO|     45              -0.580214             -15.788418               2.000000
 MO|     46              -0.574884             -15.643387               2.000000
 MO|     47              -0.560873             -15.262121               2.000000
 MO|     48              -0.534718             -14.550407               2.000000
 MO|     49              -0.509467             -13.863299               2.000000
 MO|     50              -0.508551             -13.838381               2.000000
 MO|     51              -0.506120             -13.772234               2.000000
 MO|     52              -0.486480             -13.237794               2.000000
 MO|     53              -0.477805             -13.001729               2.000000
 MO|     54              -0.462697             -12.590616               2.000000
 MO|     55              -0.445974             -12.135581               2.000000
 MO|     56              -0.426139             -11.595845               2.000000
 MO|     57              -0.423180             -11.515314               2.000000
 MO|     58              -0.419666             -11.419686               2.000000
 MO|     59              -0.419163             -11.406012               2.000000
 MO|     60              -0.410458             -11.169126               2.000000
 MO|     61              -0.407044             -11.076235               2.000000
 MO|     62              -0.400609             -10.901126               2.000000
 MO|     63              -0.398531             -10.844584               2.000000
 MO|     64              -0.383623             -10.438914               2.000000
 MO|     65              -0.375757             -10.224871               2.000000
 MO|     66              -0.374757             -10.197657               2.000000
 MO|     67              -0.371553             -10.110463               2.000000
 MO|     68              -0.369264             -10.048195               2.000000
 MO|     69              -0.357718              -9.734001               2.000000
 MO|     70              -0.354614              -9.649546               2.000000
 MO|     71              -0.349439              -9.508731               2.000000
 MO|     72              -0.345602              -9.404320               2.000000
 MO|     73              -0.344018              -9.361212               2.000000
 MO|     74              -0.333805              -9.083297               2.000000
 MO|     75              -0.322417              -8.773410               2.000000
 MO|     76              -0.320264              -8.714817               2.000000
 MO|     77              -0.317187              -8.631110               2.000000
 MO|     78              -0.303490              -8.258384               2.000000
 MO|     79              -0.302639              -8.235233               2.000000
 MO|     80              -0.299894              -8.160537               2.000000
 MO|     81              -0.293913              -7.997788               2.000000
 MO|     82              -0.292716              -7.965205               2.000000
 MO|     83              -0.269317              -7.328483               2.000000
 MO|     84              -0.259250              -7.054545               2.000000
 MO|     85              -0.256644              -6.983629               2.000000
 MO|     86              -0.251646              -6.847623               2.000000
 MO|     87              -0.234009              -6.367714               2.000000
 MO|     88              -0.226855              -6.173034               2.000000
 MO|     89              -0.220903              -6.011075               2.000000
 MO|     90              -0.194175              -5.283773               2.000000
 MO|     91              -0.184155              -5.011102               2.000000
 MO|     92              -0.162436              -4.420115               2.000000
 MO|     93              -0.066932              -1.821316               0.000000
 MO|     94              -0.065694              -1.787613               0.000000
 MO|     95              -0.056758              -1.544474               0.000000
 MO|     96              -0.036852              -1.002792               0.000000
 MO|     97              -0.017215              -0.468437               0.000000
 MO|     98              -0.016084              -0.437656               0.000000
 MO|     99              -0.004226              -0.114992               0.000000
 MO|    100              -0.001581              -0.043032               0.000000
 MO|    101               0.005304               0.144330               0.000000
 MO|    102               0.008319               0.226370               0.000000
 MO|    103               0.011585               0.315256               0.000000
 MO|    104               0.013097               0.356393               0.000000
 MO|    105               0.016686               0.454052               0.000000
 MO|    106               0.027166               0.739224               0.000000
 MO|    107               0.031744               0.863809               0.000000
 MO|    108               0.042996               1.169976               0.000000
 MO|    109               0.045266               1.231744               0.000000
 MO|    110               0.050903               1.385134               0.000000
 MO|    111               0.055957               1.522675               0.000000
 MO|    112               0.056294               1.531845               0.000000
 MO|    113               0.060324               1.641488               0.000000
 MO|    114               0.066238               1.802428               0.000000
 MO|    115               0.067696               1.842090               0.000000
 MO|    116               0.070588               1.920792               0.000000
 MO|    117               0.076028               2.068839               0.000000
 MO|    118               0.077620               2.112134               0.000000
 MO|    119               0.084460               2.298286               0.000000
 MO|    120               0.095604               2.601504               0.000000
 MO|    121               0.096346               2.621717               0.000000
 MO|    122               0.096940               2.637860               0.000000
 MO|    123               0.100478               2.734140               0.000000
 MO|    124               0.109270               2.973395               0.000000
 MO|    125               0.112043               3.048832               0.000000
 MO|    126               0.113115               3.078019               0.000000
 MO|    127               0.119319               3.246833               0.000000
 MO|    128               0.120082               3.267606               0.000000
 MO|    129               0.127982               3.482557               0.000000
 MO|    130               0.133411               3.630301               0.000000
 MO|    131               0.143974               3.917736               0.000000
 MO|    132               0.144315               3.927002               0.000000
 MO|    133               0.158625               4.316404               0.000000
 MO|    134               0.159143               4.330497               0.000000
 MO|    135               0.160089               4.356245               0.000000
 MO|    136               0.162704               4.427394               0.000000
 MO|    137               0.165261               4.496989               0.000000
 MO|    138               0.166199               4.522498               0.000000
 MO|    139               0.166544               4.531906               0.000000
 MO|    140               0.168118               4.574714               0.000000
 MO|    141               0.174376               4.745008               0.000000
 MO|    142               0.176359               4.798980               0.000000
 MO|    143               0.186198               5.066709               0.000000
 MO|    144               0.187233               5.094856               0.000000
 MO|    145               0.198876               5.411693               0.000000
 MO|    146               0.203429               5.535574               0.000000
 MO|    147               0.204079               5.553263               0.000000
 MO|    148               0.204138               5.554889               0.000000
 MO|    149               0.210163               5.718827               0.000000
 MO|    150               0.210270               5.721746               0.000000
 MO|    151               0.212564               5.784162               0.000000
 MO|    152               0.219851               5.982450               0.000000
 MO|    153               0.220344               5.995870               0.000000
 MO|    154               0.221679               6.032188               0.000000
 MO|    155               0.234035               6.368418               0.000000
 MO|    156               0.239054               6.504998               0.000000
 MO|    157               0.239340               6.512762               0.000000
 MO|    158               0.242643               6.602660               0.000000
 MO|    159               0.244734               6.659538               0.000000
 MO|    160               0.245003               6.666875               0.000000
 MO|    161               0.246599               6.710295               0.000000
 MO|    162               0.249456               6.788043               0.000000
 MO|    163               0.268117               7.295823               0.000000
 MO|    164               0.268453               7.304968               0.000000
 MO|    165               0.270379               7.357394               0.000000
 MO|    166               0.274172               7.460594               0.000000
 MO|    167               0.284065               7.729815               0.000000
 MO|    168               0.287060               7.811286               0.000000
 MO|    169               0.289665               7.882197               0.000000
 MO|    170               0.295457               8.039801               0.000000
 MO|    171               0.305271               8.306846               0.000000
 MO|    172               0.307425               8.365447               0.000000
 MO|    173               0.308636               8.398420               0.000000
 MO|    174               0.308980               8.407767               0.000000
 MO|    175               0.318589               8.669258               0.000000
 MO|    176               0.322432               8.773813               0.000000
 MO|    177               0.328444               8.937427               0.000000
 MO|    178               0.330837               9.002542               0.000000
 MO|    179               0.338935               9.222894               0.000000
 MO|    180               0.340657               9.269755               0.000000
 MO|    181               0.341574               9.294700               0.000000
 MO|    182               0.343629               9.350619               0.000000
 MO|    183               0.360503               9.809773               0.000000
 MO|    184               0.365104               9.934979               0.000000
 MO|    185               0.366456               9.971774               0.000000
 MO|    186               0.375060              10.205915               0.000000
 MO|    187               0.379272              10.320527               0.000000
 MO|    188               0.391354              10.649287               0.000000
 MO|    189               0.395885              10.772591               0.000000
 MO|    190               0.399732              10.877259               0.000000
 MO|    191               0.406697              11.066791               0.000000
 MO|    192               0.410073              11.158646               0.000000
 MO| Sum:                                                             184.000000
 MO| E(Fermi):           -0.077255 a.u.         -2.102222 eV
 MO| Band gap:            0.095504 a.u.          2.598799 eV

    18 Broy./Diag. 0.40E+00    0.3     0.00006175     -1063.0431341098  1.56E-03
  Decoupling Energy:                                              -0.0000126735

 MO| EIGENVALUES AND OCCUPATION NUMBERS AFTER SCF STEP 18
 MO|
 MO|  Index      Eigenvalue [a.u.]        Eigenvalue [eV]             Occupation
 MO|      1              -9.796463            -266.575308               2.000000
 MO|      2              -9.796443            -266.574765               2.000000
 MO|      3              -9.796435            -266.574556               2.000000
 MO|      4              -9.796424            -266.574267               2.000000
 MO|      5              -9.794035            -266.509257               2.000000
 MO|      6              -9.794012            -266.508615               2.000000
 MO|      7              -9.793935            -266.506535               2.000000
 MO|      8              -9.793899            -266.505546               2.000000
 MO|      9              -9.793870            -266.504762               2.000000
 MO|     10              -9.793716            -266.500573               2.000000
 MO|     11              -9.793586            -266.497030               2.000000
 MO|     12              -9.793579            -266.496845               2.000000
 MO|     13              -9.793577            -266.496777               2.000000
 MO|     14              -9.793492            -266.494466               2.000000
 MO|     15              -9.786043            -266.291776               2.000000
 MO|     16              -9.786041            -266.291719               2.000000
 MO|     17              -9.786032            -266.291486               2.000000
 MO|     18              -9.786029            -266.291382               2.000000
 MO|     19              -9.785520            -266.277536               2.000000
 MO|     20              -9.785503            -266.277076               2.000000
 MO|     21              -9.784288            -266.244015               2.000000
 MO|     22              -9.784287            -266.244002               2.000000
 MO|     23              -9.784260            -266.243261               2.000000
 MO|     24              -9.784257            -266.243165               2.000000
 MO|     25              -9.779892            -266.124393               2.000000
 MO|     26              -9.779890            -266.124351               2.000000
 MO|     27              -9.779806            -266.122044               2.000000
 MO|     28              -9.779803            -266.121985               2.000000
 MO|     29              -0.835370             -22.731578               2.000000
 MO|     30              -0.810066             -22.043025               2.000000
 MO|     31              -0.801427             -21.807930               2.000000
 MO|     32              -0.775021             -21.089387               2.000000
 MO|     33              -0.761593             -20.723995               2.000000
 MO|     34              -0.751164             -20.440221               2.000000
 MO|     35              -0.732877             -19.942596               2.000000
 MO|     36              -0.716511             -19.497263               2.000000
 MO|     37              -0.697743             -18.986558               2.000000
 MO|     38              -0.686314             -18.675545               2.000000
 MO|     39              -0.672924             -18.311190               2.000000
 MO|     40              -0.672194             -18.291323               2.000000
 MO|     41              -0.655411             -17.834651               2.000000
 MO|     42              -0.619247             -16.850555               2.000000
 MO|     43              -0.610503             -16.612633               2.000000
 MO|     44              -0.587908             -15.997789               2.000000
 MO|     45              -0.580176             -15.787389               2.000000
 MO|     46              -0.574846             -15.642362               2.000000
 MO|     47              -0.560835             -15.261087               2.000000
 MO|     48              -0.534680             -14.549384               2.000000
 MO|     49              -0.509430             -13.862301               2.000000
 MO|     50              -0.508513             -13.837349               2.000000
 MO|     51              -0.506082             -13.771202               2.000000
 MO|     52              -0.486442             -13.236748               2.000000
 MO|     53              -0.477768             -13.000730               2.000000
 MO|     54              -0.462658             -12.589577               2.000000
 MO|     55              -0.445938             -12.134579               2.000000
 MO|     56              -0.426101             -11.594799               2.000000
 MO|     57              -0.423141             -11.514261               2.000000
 MO|     58              -0.419630             -11.418714               2.000000
 MO|     59              -0.419126             -11.404999               2.000000
 MO|     60              -0.410421             -11.168134               2.000000
 MO|     61              -0.407006             -11.075194               2.000000
 MO|     62              -0.400572             -10.900121               2.000000
 MO|     63              -0.398494             -10.843579               2.000000
 MO|     64              -0.383584             -10.437847               2.000000
 MO|     65              -0.375721             -10.223885               2.000000
 MO|     66              -0.374720             -10.196656               2.000000
 MO|     67              -0.371516             -10.109475               2.000000
 MO|     68              -0.369225             -10.047136               2.000000
 MO|     69              -0.357681              -9.732986               2.000000
 MO|     70              -0.354575              -9.648489               2.000000
 MO|     71              -0.349399              -9.507630               2.000000
 MO|     72              -0.345565              -9.403305               2.000000
 MO|     73              -0.343981              -9.360206               2.000000
 MO|     74              -0.333767              -9.082263               2.000000
 MO|     75              -0.322381              -8.772433               2.000000
 MO|     76              -0.320226              -8.713802               2.000000
 MO|     77              -0.317148              -8.630042               2.000000
 MO|     78              -0.303453              -8.257369               2.000000
 MO|     79              -0.302601              -8.234187               2.000000
 MO|     80              -0.299855              -8.159481               2.000000
 MO|     81              -0.293876              -7.996778               2.000000
 MO|     82              -0.292676              -7.964117               2.000000
 MO|     83              -0.269279              -7.327465               2.000000
 MO|     84              -0.259212              -7.053510               2.000000
 MO|     85              -0.256605              -6.982576               2.000000
 MO|     86              -0.251606              -6.846544               2.000000
 MO|     87              -0.233971              -6.366669               2.000000
 MO|     88              -0.226815              -6.171943               2.000000
 MO|     89              -0.220863              -6.009984               2.000000
 MO|     90              -0.194136              -5.282710               2.000000
 MO|     91              -0.184116              -5.010057               2.000000
 MO|     92              -0.162397              -4.419050               2.000000
 MO|     93              -0.066894              -1.820265               0.000000
 MO|     94              -0.065659              -1.786674               0.000000
 MO|     95              -0.056721              -1.543445               0.000000
 MO|     96              -0.036814              -1.001768               0.000000
 MO|     97              -0.017175              -0.467364               0.000000
 MO|     98              -0.016057              -0.436945               0.000000
 MO|     99              -0.004238              -0.115334               0.000000
 MO|    100              -0.001604              -0.043659               0.000000
 MO|    101               0.005316               0.144655               0.000000
 MO|    102               0.008353               0.227290               0.000000
 MO|    103               0.011568               0.314791               0.000000
 MO|    104               0.013132               0.357353               0.000000
 MO|    105               0.016719               0.454942               0.000000
 MO|    106               0.027188               0.739822               0.000000
 MO|    107               0.031751               0.863985               0.000000
 MO|    108               0.042959               1.168987               0.000000
 MO|    109               0.045281               1.232155               0.000000
 MO|    110               0.050912               1.385373               0.000000
 MO|    111               0.055922               1.521718               0.000000
 MO|    112               0.056264               1.531008               0.000000
 MO|    113               0.060295               1.640723               0.000000
 MO|    114               0.066220               1.801944               0.000000
 MO|    115               0.067726               1.842916               0.000000
 MO|    116               0.070602               1.921176               0.000000
 MO|    117               0.076030               2.068879               0.000000
 MO|    118               0.077596               2.111506               0.000000
 MO|    119               0.084461               2.298296               0.000000
 MO|    120               0.095625               2.602096               0.000000
 MO|    121               0.096351               2.621834               0.000000
 MO|    122               0.096971               2.638719               0.000000
 MO|    123               0.100512               2.735058               0.000000
 MO|    124               0.109254               2.972961               0.000000
 MO|    125               0.112032               3.048549               0.000000
 MO|    126               0.113094               3.077440               0.000000
 MO|    127               0.119329               3.247114               0.000000
 MO|    128               0.120066               3.267166               0.000000
 MO|    129               0.128007               3.483239               0.000000
 MO|    130               0.133453               3.631431               0.000000
 MO|    131               0.143918               3.916221               0.000000
 MO|    132               0.144309               3.926843               0.000000
 MO|    133               0.158507               4.313191               0.000000
 MO|    134               0.159158               4.330915               0.000000
 MO|    135               0.160093               4.356349               0.000000
 MO|    136               0.162738               4.428336               0.000000
 MO|    137               0.165267               4.497147               0.000000
 MO|    138               0.166212               4.522860               0.000000
 MO|    139               0.166571               4.532636               0.000000
 MO|    140               0.168011               4.571809               0.000000
 MO|    141               0.174360               4.744571               0.000000
 MO|    142               0.176355               4.798873               0.000000
 MO|    143               0.186193               5.066563               0.000000
 MO|    144               0.187159               5.092850               0.000000
 MO|    145               0.198919               5.412871               0.000000
 MO|    146               0.203457               5.536336               0.000000
 MO|    147               0.204111               5.554149               0.000000
 MO|    148               0.204156               5.555364               0.000000
 MO|    149               0.210080               5.716578               0.000000
 MO|    150               0.210265               5.721599               0.000000
 MO|    151               0.212562               5.784103               0.000000
 MO|    152               0.219818               5.981546               0.000000
 MO|    153               0.220376               5.996731               0.000000
 MO|    154               0.221698               6.032719               0.000000
 MO|    155               0.234048               6.368782               0.000000
 MO|    156               0.239021               6.504086               0.000000
 MO|    157               0.239368               6.513545               0.000000
 MO|    158               0.242673               6.603470               0.000000
 MO|    159               0.244717               6.659082               0.000000
 MO|    160               0.244969               6.665938               0.000000
 MO|    161               0.246623               6.710954               0.000000
 MO|    162               0.249476               6.788592               0.000000
 MO|    163               0.268127               7.296104               0.000000
 MO|    164               0.268439               7.304597               0.000000
 MO|    165               0.270394               7.357794               0.000000
 MO|    166               0.274176               7.460708               0.000000
 MO|    167               0.284096               7.730651               0.000000
 MO|    168               0.287083               7.811926               0.000000
 MO|    169               0.289608               7.880641               0.000000
 MO|    170               0.295484               8.040533               0.000000
 MO|    171               0.305238               8.305947               0.000000
 MO|    172               0.307462               8.366454               0.000000
 MO|    173               0.308628               8.398182               0.000000
 MO|    174               0.309006               8.408493               0.000000
 MO|    175               0.318615               8.669948               0.000000
 MO|    176               0.322440               8.774042               0.000000
 MO|    177               0.328475               8.938256               0.000000
 MO|    178               0.330873               9.003503               0.000000
 MO|    179               0.338915               9.222344               0.000000
 MO|    180               0.340698               9.270854               0.000000
 MO|    181               0.341574               9.294705               0.000000
 MO|    182               0.343666               9.351639               0.000000
 MO|    183               0.360521               9.810270               0.000000
 MO|    184               0.365135               9.935836               0.000000
 MO|    185               0.366474               9.972270               0.000000
 MO|    186               0.375043              10.205427               0.000000
 MO|    187               0.379282              10.320791               0.000000
 MO|    188               0.391363              10.649520               0.000000
 MO|    189               0.395909              10.773241               0.000000
 MO|    190               0.399758              10.877960               0.000000
 MO|    191               0.406726              11.067574               0.000000
 MO|    192               0.410100              11.159378               0.000000
 MO| Sum:                                                             184.000000
 MO| E(Fermi):           -0.077217 a.u.         -2.101173 eV
 MO| Band gap:            0.095504 a.u.          2.598784 eV

    19 Broy./Diag. 0.40E+00    0.3     0.00005875     -1063.0422769666  8.57E-04
  Decoupling Energy:                                              -0.0000125119

 MO| EIGENVALUES AND OCCUPATION NUMBERS AFTER SCF STEP 19
 MO|
 MO|  Index      Eigenvalue [a.u.]        Eigenvalue [eV]             Occupation
 MO|      1              -9.796398            -266.573544               2.000000
 MO|      2              -9.796378            -266.573001               2.000000
 MO|      3              -9.796370            -266.572792               2.000000
 MO|      4              -9.796360            -266.572503               2.000000
 MO|      5              -9.793964            -266.507326               2.000000
 MO|      6              -9.793941            -266.506700               2.000000
 MO|      7              -9.793863            -266.504561               2.000000
 MO|      8              -9.793829            -266.503628               2.000000
 MO|      9              -9.793799            -266.502830               2.000000
 MO|     10              -9.793645            -266.498645               2.000000
 MO|     11              -9.793514            -266.495077               2.000000
 MO|     12              -9.793508            -266.494892               2.000000
 MO|     13              -9.793506            -266.494845               2.000000
 MO|     14              -9.793419            -266.492494               2.000000
 MO|     15              -9.785978            -266.290012               2.000000
 MO|     16              -9.785976            -266.289952               2.000000
 MO|     17              -9.785968            -266.289720               2.000000
 MO|     18              -9.785964            -266.289618               2.000000
 MO|     19              -9.785461            -266.275932               2.000000
 MO|     20              -9.785444            -266.275473               2.000000
 MO|     21              -9.784226            -266.242335               2.000000
 MO|     22              -9.784226            -266.242322               2.000000
 MO|     23              -9.784199            -266.241581               2.000000
 MO|     24              -9.784195            -266.241485               2.000000
 MO|     25              -9.779823            -266.122509               2.000000
 MO|     26              -9.779821            -266.122468               2.000000
 MO|     27              -9.779736            -266.120161               2.000000
 MO|     28              -9.779734            -266.120102               2.000000
 MO|     29              -0.835297             -22.729583               2.000000
 MO|     30              -0.809996             -22.041122               2.000000
 MO|     31              -0.801354             -21.805952               2.000000
 MO|     32              -0.774950             -21.087473               2.000000
 MO|     33              -0.761524             -20.722126               2.000000
 MO|     34              -0.751092             -20.438264               2.000000
 MO|     35              -0.732809             -19.940737               2.000000
 MO|     36              -0.716442             -19.495367               2.000000
 MO|     37              -0.697673             -18.984653               2.000000
 MO|     38              -0.686243             -18.673631               2.000000
 MO|     39              -0.672855             -18.309312               2.000000
 MO|     40              -0.672125             -18.289441               2.000000
 MO|     41              -0.655342             -17.832755               2.000000
 MO|     42              -0.619179             -16.848726               2.000000
 MO|     43              -0.610434             -16.610764               2.000000
 MO|     44              -0.587839             -15.995925               2.000000
 MO|     45              -0.580106             -15.785500               2.000000
 MO|     46              -0.574777             -15.640473               2.000000
 MO|     47              -0.560766             -15.259232               2.000000
 MO|     48              -0.534612             -14.547535               2.000000
 MO|     49              -0.509364             -13.860499               2.000000
 MO|     50              -0.508445             -13.835502               2.000000
 MO|     51              -0.506015             -13.769370               2.000000
 MO|     52              -0.486373             -13.234877               2.000000
 MO|     53              -0.477701             -12.998898               2.000000
 MO|     54              -0.462591             -12.587751               2.000000
 MO|     55              -0.445872             -12.132794               2.000000
 MO|     56              -0.426035             -11.593008               2.000000
 MO|     57              -0.423073             -11.512394               2.000000
 MO|     58              -0.419566             -11.416971               2.000000
 MO|     59              -0.419058             -11.403161               2.000000
 MO|     60              -0.410356             -11.166341               2.000000
 MO|     61              -0.406938             -11.073353               2.000000
 MO|     62              -0.400506             -10.898316               2.000000
 MO|     63              -0.398430             -10.841828               2.000000
 MO|     64              -0.383517             -10.436015               2.000000
 MO|     65              -0.375655             -10.222088               2.000000
 MO|     66              -0.374653             -10.194821               2.000000
 MO|     67              -0.371451             -10.107697               2.000000
 MO|     68              -0.369155             -10.045223               2.000000
 MO|     69              -0.357612              -9.731125               2.000000
 MO|     70              -0.354506              -9.646591               2.000000
 MO|     71              -0.349326              -9.505653               2.000000
 MO|     72              -0.345499              -9.401494               2.000000
 MO|     73              -0.343913              -9.358362               2.000000
 MO|     74              -0.333702              -9.080501               2.000000
 MO|     75              -0.322318              -8.770723               2.000000
 MO|     76              -0.320161              -8.712031               2.000000
 MO|     77              -0.317079              -8.628145               2.000000
 MO|     78              -0.303386              -8.255548               2.000000
 MO|     79              -0.302532              -8.232325               2.000000
 MO|     80              -0.299788              -8.157652               2.000000
 MO|     81              -0.293810              -7.994977               2.000000
 MO|     82              -0.292604              -7.962160               2.000000
 MO|     83              -0.269211              -7.325598               2.000000
 MO|     84              -0.259143              -7.051632               2.000000
 MO|     85              -0.256536              -6.980689               2.000000
 MO|     86              -0.251535              -6.844612               2.000000
 MO|     87              -0.233902              -6.364793               2.000000
 MO|     88              -0.226744              -6.170027               2.000000
 MO|     89              -0.220793              -6.008072               2.000000
 MO|     90              -0.194065              -5.280782               2.000000
 MO|     91              -0.184048              -5.008193               2.000000
 MO|     92              -0.162327              -4.417147               2.000000
 MO|     93              -0.066824              -1.818381               0.000000
 MO|     94              -0.065595              -1.784932               0.000000
 MO|     95              -0.056652              -1.541576               0.000000
 MO|     96              -0.036747              -0.999931               0.000000
 MO|     97              -0.017106              -0.465477               0.000000
 MO|     98              -0.016001              -0.435415               0.000000
 MO|     99              -0.004208              -0.114510               0.000000
 MO|    100              -0.001582              -0.043041               0.000000
 MO|    101               0.005369               0.146089               0.000000
 MO|    102               0.008417               0.229047               0.000000
 MO|    103               0.011601               0.315678               0.000000
 MO|    104               0.013197               0.359113               0.000000
 MO|    105               0.016790               0.456881               0.000000
 MO|    106               0.027256               0.741668               0.000000
 MO|    107               0.031801               0.865362               0.000000
 MO|    108               0.042971               1.169312               0.000000
 MO|    109               0.045344               1.233864               0.000000
 MO|    110               0.050969               1.386941               0.000000
 MO|    111               0.055952               1.522520               0.000000
 MO|    112               0.056296               1.531881               0.000000
 MO|    113               0.060317               1.641320               0.000000
 MO|    114               0.066240               1.802485               0.000000
 MO|    115               0.067803               1.845021               0.000000
 MO|    116               0.070652               1.922530               0.000000
 MO|    117               0.076078               2.070188               0.000000
 MO|    118               0.077613               2.111946               0.000000
 MO|    119               0.084492               2.299131               0.000000
 MO|    120               0.095695               2.603989               0.000000
 MO|    121               0.096399               2.623155               0.000000
 MO|    122               0.097032               2.640369               0.000000
 MO|    123               0.100582               2.736973               0.000000
 MO|    124               0.109278               2.973592               0.000000
 MO|    125               0.112067               3.049507               0.000000
 MO|    126               0.113111               3.077898               0.000000
 MO|    127               0.119379               3.248477               0.000000
 MO|    128               0.120103               3.268157               0.000000
 MO|    129               0.128068               3.484904               0.000000
 MO|    130               0.133542               3.633850               0.000000
 MO|    131               0.143931               3.916559               0.000000
 MO|    132               0.144336               3.927593               0.000000
 MO|    133               0.158482               4.312514               0.000000
 MO|    134               0.159214               4.332442               0.000000
 MO|    135               0.160138               4.357585               0.000000
 MO|    136               0.162817               4.430465               0.000000
 MO|    137               0.165318               4.498540               0.000000
 MO|    138               0.166267               4.524364               0.000000
 MO|    139               0.166631               4.534253               0.000000
 MO|    140               0.167979               4.570948               0.000000
 MO|    141               0.174388               4.745327               0.000000
 MO|    142               0.176384               4.799643               0.000000
 MO|    143               0.186226               5.067469               0.000000
 MO|    144               0.187151               5.092644               0.000000
 MO|    145               0.199002               5.415128               0.000000
 MO|    146               0.203539               5.538580               0.000000
 MO|    147               0.204186               5.556180               0.000000
 MO|    148               0.204222               5.557158               0.000000
 MO|    149               0.210076               5.716469               0.000000
 MO|    150               0.210295               5.722408               0.000000
 MO|    151               0.212609               5.785378               0.000000
 MO|    152               0.219836               5.982030               0.000000
 MO|    153               0.220450               5.998743               0.000000
 MO|    154               0.221764               6.034495               0.000000
 MO|    155               0.234102               6.370226               0.000000
 MO|    156               0.239043               6.504680               0.000000
 MO|    157               0.239434               6.515337               0.000000
 MO|    158               0.242751               6.605602               0.000000
 MO|    159               0.244744               6.659824               0.000000
 MO|    160               0.244990               6.666512               0.000000
 MO|    161               0.246692               6.712819               0.000000
 MO|    162               0.249544               6.790446               0.000000
 MO|    163               0.268195               7.297949               0.000000
 MO|    164               0.268466               7.305325               0.000000
 MO|    165               0.270457               7.359516               0.000000
 MO|    166               0.274234               7.462285               0.000000
 MO|    167               0.284165               7.732533               0.000000
 MO|    168               0.287163               7.814097               0.000000
 MO|    169               0.289607               7.880596               0.000000
 MO|    170               0.295547               8.042235               0.000000
 MO|    171               0.305257               8.306453               0.000000
 MO|    172               0.307534               8.368437               0.000000
 MO|    173               0.308673               8.399431               0.000000
 MO|    174               0.309064               8.410072               0.000000
 MO|    175               0.318698               8.672220               0.000000
 MO|    176               0.322490               8.775401               0.000000
 MO|    177               0.328556               8.940453               0.000000
 MO|    178               0.330950               9.005598               0.000000
 MO|    179               0.338943               9.223100               0.000000
 MO|    180               0.340787               9.273288               0.000000
 MO|    181               0.341619               9.295939               0.000000
 MO|    182               0.343737               9.353553               0.000000
 MO|    183               0.360579               9.811842               0.000000
 MO|    184               0.365204               9.937693               0.000000
 MO|    185               0.366540               9.974060               0.000000
 MO|    186               0.375072              10.206228               0.000000
 MO|    187               0.379354              10.322740               0.000000
 MO|    188               0.391416              10.650978               0.000000
 MO|    189               0.395975              10.775027               0.000000
 MO|    190               0.399833              10.880002               0.000000
 MO|    191               0.406797              11.069500               0.000000
 MO|    192               0.410185              11.161691               0.000000
 MO| Sum:                                                             184.000000
 MO| E(Fermi):           -0.077148 a.u.         -2.099292 eV
 MO| Band gap:            0.095503 a.u.          2.598766 eV

    20 Broy./Diag. 0.40E+00    0.3     0.00004092     -1063.0418919028  3.85E-04
  Decoupling Energy:                                              -0.0000127510

 MO| EIGENVALUES AND OCCUPATION NUMBERS AFTER SCF STEP 20
 MO|
 MO|  Index      Eigenvalue [a.u.]        Eigenvalue [eV]             Occupation
 MO|      1              -9.796366            -266.572675               2.000000
 MO|      2              -9.796346            -266.572132               2.000000
 MO|      3              -9.796338            -266.571923               2.000000
 MO|      4              -9.796328            -266.571634               2.000000
 MO|      5              -9.793933            -266.506466               2.000000
 MO|      6              -9.793910            -266.505843               2.000000
 MO|      7              -9.793831            -266.503692               2.000000
 MO|      8              -9.793797            -266.502773               2.000000
 MO|      9              -9.793768            -266.501977               2.000000
 MO|     10              -9.793614            -266.497796               2.000000
 MO|     11              -9.793483            -266.494223               2.000000
 MO|     12              -9.793476            -266.494033               2.000000
 MO|     13              -9.793475            -266.493998               2.000000
 MO|     14              -9.793387            -266.491626               2.000000
 MO|     15              -9.785950            -266.289232               2.000000
 MO|     16              -9.785948            -266.289175               2.000000
 MO|     17              -9.785939            -266.288942               2.000000
 MO|     18              -9.785935            -266.288838               2.000000
 MO|     19              -9.785427            -266.275009               2.000000
 MO|     20              -9.785410            -266.274549               2.000000
 MO|     21              -9.784197            -266.241536               2.000000
 MO|     22              -9.784196            -266.241523               2.000000
 MO|     23              -9.784169            -266.240783               2.000000
 MO|     24              -9.784166            -266.240686               2.000000
 MO|     25              -9.779793            -266.121697               2.000000
 MO|     26              -9.779791            -266.121655               2.000000
 MO|     27              -9.779707            -266.119348               2.000000
 MO|     28              -9.779704            -266.119290               2.000000
 MO|     29              -0.835263             -22.728672               2.000000
 MO|     30              -0.809963             -22.040227               2.000000
 MO|     31              -0.801321             -21.805066               2.000000
 MO|     32              -0.774919             -21.086608               2.000000
 MO|     33              -0.761491             -20.721220               2.000000
 MO|     34              -0.751061             -20.437396               2.000000
 MO|     35              -0.732777             -19.939882               2.000000
 MO|     36              -0.716410             -19.494505               2.000000
 MO|     37              -0.697640             -18.983756               2.000000
 MO|     38              -0.686212             -18.672766               2.000000
 MO|     39              -0.672823             -18.308457               2.000000
 MO|     40              -0.672093             -18.288580               2.000000
 MO|     41              -0.655310             -17.831900               2.000000
 MO|     42              -0.619148             -16.847881               2.000000
 MO|     43              -0.610402             -16.609893               2.000000
 MO|     44              -0.587807             -15.995050               2.000000
 MO|     45              -0.580075             -15.784636               2.000000
 MO|     46              -0.574745             -15.639617               2.000000
 MO|     47              -0.560736             -15.258401               2.000000
 MO|     48              -0.534581             -14.546685               2.000000
 MO|     49              -0.509332             -13.859616               2.000000
 MO|     50              -0.508414             -13.834658               2.000000
 MO|     51              -0.505985             -13.768547               2.000000
 MO|     52              -0.486341             -13.234022               2.000000
 MO|     53              -0.477670             -12.998056               2.000000
 MO|     54              -0.462561             -12.586928               2.000000
 MO|     55              -0.445842             -12.131981               2.000000
 MO|     56              -0.426005             -11.592195               2.000000
 MO|     57              -0.423042             -11.511563               2.000000
 MO|     58              -0.419536             -11.416153               2.000000
 MO|     59              -0.419028             -11.402323               2.000000
 MO|     60              -0.410324             -11.165473               2.000000
 MO|     61              -0.406906             -11.072463               2.000000
 MO|     62              -0.400476             -10.897503               2.000000
 MO|     63              -0.398397             -10.840939               2.000000
 MO|     64              -0.383485             -10.435171               2.000000
 MO|     65              -0.375625             -10.221278               2.000000
 MO|     66              -0.374622             -10.193989               2.000000
 MO|     67              -0.371420             -10.106864               2.000000
 MO|     68              -0.369123             -10.044350               2.000000
 MO|     69              -0.357581              -9.730282               2.000000
 MO|     70              -0.354473              -9.645694               2.000000
 MO|     71              -0.349295              -9.504794               2.000000
 MO|     72              -0.345467              -9.400628               2.000000
 MO|     73              -0.343882              -9.357509               2.000000
 MO|     74              -0.333673              -9.079713               2.000000
 MO|     75              -0.322289              -8.769934               2.000000
 MO|     76              -0.320132              -8.711240               2.000000
 MO|     77              -0.317048              -8.627314               2.000000
 MO|     78              -0.303355              -8.254723               2.000000
 MO|     79              -0.302501              -8.231472               2.000000
 MO|     80              -0.299758              -8.156838               2.000000
 MO|     81              -0.293779              -7.994144               2.000000
 MO|     82              -0.292573              -7.961317               2.000000
 MO|     83              -0.269179              -7.324730               2.000000
 MO|     84              -0.259111              -7.050778               2.000000
 MO|     85              -0.256505              -6.979859               2.000000
 MO|     86              -0.251504              -6.843763               2.000000
 MO|     87              -0.233871              -6.363953               2.000000
 MO|     88              -0.226713              -6.169185               2.000000
 MO|     89              -0.220762              -6.007231               2.000000
 MO|     90              -0.194034              -5.279942               2.000000
 MO|     91              -0.184017              -5.007360               2.000000
 MO|     92              -0.162295              -4.416282               2.000000
 MO|     93              -0.066793              -1.817528               0.000000
 MO|     94              -0.065566              -1.784136               0.000000
 MO|     95              -0.056622              -1.540755               0.000000
 MO|     96              -0.036717              -0.999112               0.000000
 MO|     97              -0.017075              -0.464644               0.000000
 MO|     98              -0.015973              -0.434656               0.000000
 MO|     99              -0.004182              -0.113784               0.000000
 MO|    100              -0.001555              -0.042315               0.000000
 MO|    101               0.005398               0.146888               0.000000
 MO|    102               0.008446               0.229838               0.000000
 MO|    103               0.011629               0.316441               0.000000
 MO|    104               0.013226               0.359904               0.000000
 MO|    105               0.016826               0.457851               0.000000
 MO|    106               0.027294               0.742708               0.000000
 MO|    107               0.031833               0.866220               0.000000
 MO|    108               0.042994               1.169923               0.000000
 MO|    109               0.045380               1.234862               0.000000
 MO|    110               0.051008               1.387988               0.000000
 MO|    111               0.055988               1.523500               0.000000
 MO|    112               0.056329               1.532795               0.000000
 MO|    113               0.060343               1.642022               0.000000
 MO|    114               0.066256               1.802930               0.000000
 MO|    115               0.067847               1.846203               0.000000
 MO|    116               0.070678               1.923253               0.000000
 MO|    117               0.076109               2.071037               0.000000
 MO|    118               0.077629               2.112386               0.000000
 MO|    119               0.084510               2.299638               0.000000
 MO|    120               0.095736               2.605106               0.000000
 MO|    121               0.096427               2.623910               0.000000
 MO|    122               0.097060               2.641124               0.000000
 MO|    123               0.100616               2.737896               0.000000
 MO|    124               0.109298               2.974161               0.000000
 MO|    125               0.112094               3.050242               0.000000
 MO|    126               0.113128               3.078356               0.000000
 MO|    127               0.119410               3.249306               0.000000
 MO|    128               0.120131               3.268939               0.000000
 MO|    129               0.128100               3.485770               0.000000
 MO|    130               0.133589               3.635148               0.000000
 MO|    131               0.143958               3.917300               0.000000
 MO|    132               0.144356               3.928136               0.000000
 MO|    133               0.158508               4.313215               0.000000
 MO|    134               0.159247               4.333331               0.000000
 MO|    135               0.160168               4.358402               0.000000
 MO|    136               0.162860               4.431649               0.000000
 MO|    137               0.165350               4.499395               0.000000
 MO|    138               0.166302               4.525307               0.000000
 MO|    139               0.166659               4.535014               0.000000
 MO|    140               0.167996               4.571399               0.000000
 MO|    141               0.174413               4.746018               0.000000
 MO|    142               0.176404               4.800194               0.000000
 MO|    143               0.186248               5.068067               0.000000
 MO|    144               0.187180               5.093424               0.000000
 MO|    145               0.199043               5.416224               0.000000
 MO|    146               0.203587               5.539896               0.000000
 MO|    147               0.204226               5.557262               0.000000
 MO|    148               0.204261               5.558238               0.000000
 MO|    149               0.210110               5.717383               0.000000
 MO|    150               0.210317               5.723024               0.000000
 MO|    151               0.212643               5.786303               0.000000
 MO|    152               0.219860               5.982699               0.000000
 MO|    153               0.220489               5.999817               0.000000
 MO|    154               0.221803               6.035560               0.000000
 MO|    155               0.234132               6.371065               0.000000
 MO|    156               0.239074               6.505523               0.000000
 MO|    157               0.239469               6.516274               0.000000
 MO|    158               0.242796               6.606808               0.000000
 MO|    159               0.244765               6.660395               0.000000
 MO|    160               0.245021               6.667366               0.000000
 MO|    161               0.246733               6.713947               0.000000
 MO|    162               0.249585               6.791561               0.000000
 MO|    163               0.268242               7.299236               0.000000
 MO|    164               0.268488               7.305934               0.000000
 MO|    165               0.270499               7.360653               0.000000
 MO|    166               0.274272               7.463317               0.000000
 MO|    167               0.284203               7.733548               0.000000
 MO|    168               0.287213               7.815466               0.000000
 MO|    169               0.289631               7.881261               0.000000
 MO|    170               0.295579               8.043125               0.000000
 MO|    171               0.305283               8.307185               0.000000
 MO|    172               0.307571               8.369425               0.000000
 MO|    173               0.308712               8.400476               0.000000
 MO|    174               0.309094               8.410876               0.000000
 MO|    175               0.318753               8.673712               0.000000
 MO|    176               0.322520               8.776216               0.000000
 MO|    177               0.328605               8.941788               0.000000
 MO|    178               0.330990               9.006704               0.000000
 MO|    179               0.338970               9.223855               0.000000
 MO|    180               0.340834               9.274557               0.000000
 MO|    181               0.341654               9.296868               0.000000
 MO|    182               0.343771               9.354479               0.000000
 MO|    183               0.360613               9.812771               0.000000
 MO|    184               0.365238               9.938630               0.000000
 MO|    185               0.366577               9.975067               0.000000
 MO|    186               0.375101              10.207007               0.000000
 MO|    187               0.379403              10.324071               0.000000
 MO|    188               0.391452              10.651940               0.000000
 MO|    189               0.396012              10.776045               0.000000
 MO|    190               0.399879              10.881250               0.000000
 MO|    191               0.406835              11.070547               0.000000
 MO|    192               0.410240              11.163193               0.000000
 MO| Sum:                                                             184.000000
 MO| E(Fermi):           -0.077116 a.u.         -2.098440 eV
 MO| Band gap:            0.095502 a.u.          2.598754 eV

    21 Broy./Diag. 0.40E+00    0.3     0.00001661     -1063.0422586564 -3.67E-04
  Decoupling Energy:                                              -0.0000129655

 MO| EIGENVALUES AND OCCUPATION NUMBERS AFTER SCF STEP 21
 MO|
 MO|  Index      Eigenvalue [a.u.]        Eigenvalue [eV]             Occupation
 MO|      1              -9.796358            -266.572463               2.000000
 MO|      2              -9.796338            -266.571920               2.000000
 MO|      3              -9.796331            -266.571711               2.000000
 MO|      4              -9.796320            -266.571422               2.000000
 MO|      5              -9.793925            -266.506244               2.000000
 MO|      6              -9.793902            -266.505620               2.000000
 MO|      7              -9.793823            -266.503474               2.000000
 MO|      8              -9.793789            -266.502549               2.000000
 MO|      9              -9.793760            -266.501753               2.000000
 MO|     10              -9.793606            -266.497571               2.000000
 MO|     11              -9.793475            -266.493999               2.000000
 MO|     12              -9.793468            -266.493811               2.000000
 MO|     13              -9.793466            -266.493772               2.000000
 MO|     14              -9.793379            -266.491407               2.000000
 MO|     15              -9.785940            -266.288963               2.000000
 MO|     16              -9.785938            -266.288906               2.000000
 MO|     17              -9.785929            -266.288674               2.000000
 MO|     18              -9.785925            -266.288569               2.000000
 MO|     19              -9.785416            -266.274700               2.000000
 MO|     20              -9.785399            -266.274239               2.000000
 MO|     21              -9.784188            -266.241288               2.000000
 MO|     22              -9.784187            -266.241275               2.000000
 MO|     23              -9.784160            -266.240534               2.000000
 MO|     24              -9.784156            -266.240438               2.000000
 MO|     25              -9.779783            -266.121420               2.000000
 MO|     26              -9.779781            -266.121378               2.000000
 MO|     27              -9.779696            -266.119071               2.000000
 MO|     28              -9.779694            -266.119012               2.000000
 MO|     29              -0.835255             -22.728438               2.000000
 MO|     30              -0.809955             -22.039984               2.000000
 MO|     31              -0.801313             -21.804830               2.000000
 MO|     32              -0.774910             -21.086372               2.000000
 MO|     33              -0.761481             -20.720956               2.000000
 MO|     34              -0.751052             -20.437160               2.000000
 MO|     35              -0.732768             -19.939632               2.000000
 MO|     36              -0.716401             -19.494262               2.000000
 MO|     37              -0.697631             -18.983501               2.000000
 MO|     38              -0.686203             -18.672524               2.000000
 MO|     39              -0.672814             -18.308213               2.000000
 MO|     40              -0.672084             -18.288331               2.000000
 MO|     41              -0.655301             -17.831658               2.000000
 MO|     42              -0.619139             -16.847617               2.000000
 MO|     43              -0.610393             -16.609630               2.000000
 MO|     44              -0.587798             -15.994793               2.000000
 MO|     45              -0.580066             -15.784387               2.000000
 MO|     46              -0.574737             -15.639377               2.000000
 MO|     47              -0.560727             -15.258159               2.000000
 MO|     48              -0.534572             -14.546432               2.000000
 MO|     49              -0.509321             -13.859339               2.000000
 MO|     50              -0.508405             -13.834397               2.000000
 MO|     51              -0.505976             -13.768304               2.000000
 MO|     52              -0.486332             -13.233768               2.000000
 MO|     53              -0.477661             -12.997806               2.000000
 MO|     54              -0.462552             -12.586669               2.000000
 MO|     55              -0.445833             -12.131728               2.000000
 MO|     56              -0.425996             -11.591940               2.000000
 MO|     57              -0.423033             -11.511308               2.000000
 MO|     58              -0.419526             -11.415891               2.000000
 MO|     59              -0.419019             -11.402081               2.000000
 MO|     60              -0.410313             -11.165197               2.000000
 MO|     61              -0.406896             -11.072200               2.000000
 MO|     62              -0.400467             -10.897256               2.000000
 MO|     63              -0.398387             -10.840652               2.000000
 MO|     64              -0.383476             -10.434910               2.000000
 MO|     65              -0.375616             -10.221031               2.000000
 MO|     66              -0.374613             -10.193747               2.000000
 MO|     67              -0.371411             -10.106600               2.000000
 MO|     68              -0.369114             -10.044098               2.000000
 MO|     69              -0.357572              -9.730036               2.000000
 MO|     70              -0.354463              -9.645433               2.000000
 MO|     71              -0.349287              -9.504574               2.000000
 MO|     72              -0.345457              -9.400353               2.000000
 MO|     73              -0.343873              -9.357264               2.000000
 MO|     74              -0.333664              -9.079462               2.000000
 MO|     75              -0.322280              -8.769679               2.000000
 MO|     76              -0.320123              -8.710987               2.000000
 MO|     77              -0.317040              -8.627094               2.000000
 MO|     78              -0.303346              -8.254475               2.000000
 MO|     79              -0.302492              -8.231223               2.000000
 MO|     80              -0.299749              -8.156583               2.000000
 MO|     81              -0.293770              -7.993891               2.000000
 MO|     82              -0.292565              -7.961098               2.000000
 MO|     83              -0.269170              -7.324482               2.000000
 MO|     84              -0.259102              -7.050527               2.000000
 MO|     85              -0.256497              -6.979636               2.000000
 MO|     86              -0.251496              -6.843543               2.000000
 MO|     87              -0.233862              -6.363715               2.000000
 MO|     88              -0.226705              -6.168966               2.000000
 MO|     89              -0.220754              -6.007012               2.000000
 MO|     90              -0.194026              -5.279718               2.000000
 MO|     91              -0.184008              -5.007115               2.000000
 MO|     92              -0.162287              -4.416046               2.000000
 MO|     93              -0.066785              -1.817300               0.000000
 MO|     94              -0.065557              -1.783900               0.000000
 MO|     95              -0.056613              -1.540531               0.000000
 MO|     96              -0.036709              -0.998893               0.000000
 MO|     97              -0.017067              -0.464423               0.000000
 MO|     98              -0.015964              -0.434413               0.000000
 MO|     99              -0.004170              -0.113459               0.000000
 MO|    100              -0.001541              -0.041944               0.000000
 MO|    101               0.005407               0.147124               0.000000
 MO|    102               0.008455               0.230060               0.000000
 MO|    103               0.011641               0.316763               0.000000
 MO|    104               0.013234               0.360124               0.000000
 MO|    105               0.016835               0.458112               0.000000
 MO|    106               0.027306               0.743040               0.000000
 MO|    107               0.031844               0.866513               0.000000
 MO|    108               0.043006               1.170260               0.000000
 MO|    109               0.045392               1.235185               0.000000
 MO|    110               0.051023               1.388413               0.000000
 MO|    111               0.056007               1.524039               0.000000
 MO|    112               0.056346               1.533253               0.000000
 MO|    113               0.060357               1.642386               0.000000
 MO|    114               0.066262               1.803076               0.000000
 MO|    115               0.067862               1.846620               0.000000
 MO|    116               0.070687               1.923478               0.000000
 MO|    117               0.076120               2.071331               0.000000
 MO|    118               0.077635               2.112548               0.000000
 MO|    119               0.084515               2.299772               0.000000
 MO|    120               0.095752               2.605534               0.000000
 MO|    121               0.096437               2.624174               0.000000
 MO|    122               0.097067               2.641321               0.000000
 MO|    123               0.100624               2.738124               0.000000
 MO|    124               0.109307               2.974389               0.000000
 MO|    125               0.112106               3.050549               0.000000
 MO|    126               0.113134               3.078536               0.000000
 MO|    127               0.119422               3.249640               0.000000
 MO|    128               0.120144               3.269285               0.000000
 MO|    129               0.128110               3.486039               0.000000
 MO|    130               0.133606               3.635602               0.000000
 MO|    131               0.143973               3.917717               0.000000
 MO|    132               0.144363               3.928322               0.000000
 MO|    133               0.158528               4.313772               0.000000
 MO|    134               0.159259               4.333660               0.000000
 MO|    135               0.160181               4.358755               0.000000
 MO|    136               0.162876               4.432092               0.000000
 MO|    137               0.165362               4.499718               0.000000
 MO|    138               0.166317               4.525717               0.000000
 MO|    139               0.166667               4.535228               0.000000
 MO|    140               0.168010               4.571791               0.000000
 MO|    141               0.174425               4.746346               0.000000
 MO|    142               0.176411               4.800396               0.000000
 MO|    143               0.186255               5.068251               0.000000
 MO|    144               0.187202               5.094032               0.000000
 MO|    145               0.199054               5.416543               0.000000
 MO|    146               0.203607               5.540428               0.000000
 MO|    147               0.204240               5.557650               0.000000
 MO|    148               0.204277               5.558658               0.000000
 MO|    149               0.210135               5.718060               0.000000
 MO|    150               0.210325               5.723246               0.000000
 MO|    151               0.212657               5.786702               0.000000
 MO|    152               0.219872               5.983033               0.000000
 MO|    153               0.220503               6.000182               0.000000
 MO|    154               0.221818               6.035987               0.000000
 MO|    155               0.234144               6.371375               0.000000
 MO|    156               0.239092               6.506011               0.000000
 MO|    157               0.239480               6.516595               0.000000
 MO|    158               0.242813               6.607268               0.000000
 MO|    159               0.244772               6.660578               0.000000
 MO|    160               0.245040               6.667865               0.000000
 MO|    161               0.246750               6.714410               0.000000
 MO|    162               0.249601               6.792002               0.000000
 MO|    163               0.268264               7.299838               0.000000
 MO|    164               0.268496               7.306152               0.000000
 MO|    165               0.270517               7.361153               0.000000
 MO|    166               0.274288               7.463745               0.000000
 MO|    167               0.284216               7.733923               0.000000
 MO|    168               0.287235               7.816070               0.000000
 MO|    169               0.289648               7.881714               0.000000
 MO|    170               0.295591               8.043441               0.000000
 MO|    171               0.305298               8.307573               0.000000
 MO|    172               0.307583               8.369763               0.000000
 MO|    173               0.308731               8.401001               0.000000
 MO|    174               0.309104               8.411159               0.000000
 MO|    175               0.318779               8.674420               0.000000
 MO|    176               0.322531               8.776519               0.000000
 MO|    177               0.328627               8.942384               0.000000
 MO|    178               0.331004               9.007090               0.000000
 MO|    179               0.338983               9.224192               0.000000
 MO|    180               0.340850               9.274991               0.000000
 MO|    181               0.341671               9.297343               0.000000
 MO|    182               0.343781               9.354769               0.000000
 MO|    183               0.360625               9.813098               0.000000
 MO|    184               0.365249               9.938936               0.000000
 MO|    185               0.366589               9.975393               0.000000
 MO|    186               0.375113              10.207350               0.000000
 MO|    187               0.379423              10.324631               0.000000
 MO|    188               0.391466              10.652321               0.000000
 MO|    189               0.396027              10.776440               0.000000
 MO|    190               0.399898              10.881790               0.000000
 MO|    191               0.406848              11.070893               0.000000
 MO|    192               0.410265              11.163884               0.000000
 MO| Sum:                                                             184.000000
 MO| E(Fermi):           -0.077108 a.u.         -2.098212 eV
 MO| Band gap:            0.095502 a.u.          2.598746 eV

    22 Broy./Diag. 0.40E+00    0.3     0.00001282     -1063.0426312940 -3.73E-04
  Decoupling Energy:                                              -0.0000130058

 MO| EIGENVALUES AND OCCUPATION NUMBERS AFTER SCF STEP 22
 MO|
 MO|  Index      Eigenvalue [a.u.]        Eigenvalue [eV]             Occupation
 MO|      1              -9.796356            -266.572392               2.000000
 MO|      2              -9.796336            -266.571850               2.000000
 MO|      3              -9.796328            -266.571641               2.000000
 MO|      4              -9.796317            -266.571352               2.000000
 MO|      5              -9.793923            -266.506207               2.000000
 MO|      6              -9.793900            -266.505581               2.000000
 MO|      7              -9.793822            -266.503444               2.000000
 MO|      8              -9.793787            -266.502510               2.000000
 MO|      9              -9.793758            -266.501715               2.000000
 MO|     10              -9.793605            -266.497532               2.000000
 MO|     11              -9.793473            -266.493964               2.000000
 MO|     12              -9.793467            -266.493777               2.000000
 MO|     13              -9.793465            -266.493734               2.000000
 MO|     14              -9.793378            -266.491377               2.000000
 MO|     15              -9.785938            -266.288914               2.000000
 MO|     16              -9.785936            -266.288858               2.000000
 MO|     17              -9.785927            -266.288625               2.000000
 MO|     18              -9.785924            -266.288521               2.000000
 MO|     19              -9.785414            -266.274644               2.000000
 MO|     20              -9.785397            -266.274184               2.000000
 MO|     21              -9.784185            -266.241225               2.000000
 MO|     22              -9.784185            -266.241211               2.000000
 MO|     23              -9.784158            -266.240471               2.000000
 MO|     24              -9.784154            -266.240374               2.000000
 MO|     25              -9.779781            -266.121373               2.000000
 MO|     26              -9.779779            -266.121331               2.000000
 MO|     27              -9.779695            -266.119024               2.000000
 MO|     28              -9.779692            -266.118965               2.000000
 MO|     29              -0.835254             -22.728408               2.000000
 MO|     30              -0.809953             -22.039941               2.000000
 MO|     31              -0.801312             -21.804797               2.000000
 MO|     32              -0.774908             -21.086332               2.000000
 MO|     33              -0.761479             -20.720909               2.000000
 MO|     34              -0.751050             -20.437123               2.000000
 MO|     35              -0.732766             -19.939583               2.000000
 MO|     36              -0.716399             -19.494220               2.000000
 MO|     37              -0.697629             -18.983460               2.000000
 MO|     38              -0.686201             -18.672479               2.000000
 MO|     39              -0.672813             -18.308164               2.000000
 MO|     40              -0.672082             -18.288286               2.000000
 MO|     41              -0.655300             -17.831616               2.000000
 MO|     42              -0.619137             -16.847563               2.000000
 MO|     43              -0.610391             -16.609580               2.000000
 MO|     44              -0.587796             -15.994743               2.000000
 MO|     45              -0.580064             -15.784340               2.000000
 MO|     46              -0.574735             -15.639332               2.000000
 MO|     47              -0.560725             -15.258106               2.000000
 MO|     48              -0.534570             -14.546379               2.000000
 MO|     49              -0.509319             -13.859282               2.000000
 MO|     50              -0.508403             -13.834341               2.000000
 MO|     51              -0.505974             -13.768249               2.000000
 MO|     52              -0.486330             -13.233714               2.000000
 MO|     53              -0.477659             -12.997754               2.000000
 MO|     54              -0.462549             -12.586608               2.000000
 MO|     55              -0.445831             -12.131667               2.000000
 MO|     56              -0.425994             -11.591875               2.000000
 MO|     57              -0.423031             -11.511250               2.000000
 MO|     58              -0.419524             -11.415827               2.000000
 MO|     59              -0.419017             -11.402029               2.000000
 MO|     60              -0.410311             -11.165138               2.000000
 MO|     61              -0.406894             -11.072155               2.000000
 MO|     62              -0.400465             -10.897199               2.000000
 MO|     63              -0.398385             -10.840594               2.000000
 MO|     64              -0.383474             -10.434846               2.000000
 MO|     65              -0.375614             -10.220974               2.000000
 MO|     66              -0.374611             -10.193697               2.000000
 MO|     67              -0.371408             -10.106538               2.000000
 MO|     68              -0.369112             -10.044048               2.000000
 MO|     69              -0.357570              -9.729987               2.000000
 MO|     70              -0.354462              -9.645395               2.000000
 MO|     71              -0.349286              -9.504545               2.000000
 MO|     72              -0.345454              -9.400292               2.000000
 MO|     73              -0.343871              -9.357214               2.000000
 MO|     74              -0.333662              -9.079393               2.000000
 MO|     75              -0.322277              -8.769611               2.000000
 MO|     76              -0.320120              -8.710920               2.000000
 MO|     77              -0.317038              -8.627056               2.000000
 MO|     78              -0.303344              -8.254419               2.000000
 MO|     79              -0.302490              -8.231180               2.000000
 MO|     80              -0.299747              -8.156521               2.000000
 MO|     81              -0.293768              -7.993832               2.000000
 MO|     82              -0.292564              -7.961068               2.000000
 MO|     83              -0.269168              -7.324434               2.000000
 MO|     84              -0.259100              -7.050477               2.000000
 MO|     85              -0.256496              -6.979598               2.000000
 MO|     86              -0.251494              -6.843512               2.000000
 MO|     87              -0.233861              -6.363675               2.000000
 MO|     88              -0.226704              -6.168929               2.000000
 MO|     89              -0.220752              -6.006973               2.000000
 MO|     90              -0.194025              -5.279685               2.000000
 MO|     91              -0.184006              -5.007070               2.000000
 MO|     92              -0.162285              -4.416009               2.000000
 MO|     93              -0.066783              -1.817266               0.000000
 MO|     94              -0.065556              -1.783857               0.000000
 MO|     95              -0.056612              -1.540495               0.000000
 MO|     96              -0.036707              -0.998855               0.000000
 MO|     97              -0.017066              -0.464387               0.000000
 MO|     98              -0.015963              -0.434368               0.000000
 MO|     99              -0.004169              -0.113435               0.000000
 MO|    100              -0.001540              -0.041897               0.000000
 MO|    101               0.005405               0.147074               0.000000
 MO|    102               0.008456               0.230097               0.000000
 MO|    103               0.011641               0.316759               0.000000
 MO|    104               0.013236               0.360162               0.000000
 MO|    105               0.016833               0.458050               0.000000
 MO|    106               0.027305               0.743011               0.000000
 MO|    107               0.031842               0.866464               0.000000
 MO|    108               0.043010               1.170350               0.000000
 MO|    109               0.045392               1.235167               0.000000
 MO|    110               0.051023               1.388418               0.000000
 MO|    111               0.056013               1.524196               0.000000
 MO|    112               0.056350               1.533363               0.000000
 MO|    113               0.060361               1.642495               0.000000
 MO|    114               0.066262               1.803072               0.000000
 MO|    115               0.067862               1.846616               0.000000
 MO|    116               0.070687               1.923499               0.000000
 MO|    117               0.076119               2.071313               0.000000
 MO|    118               0.077635               2.112544               0.000000
 MO|    119               0.084514               2.299731               0.000000
 MO|    120               0.095753               2.605569               0.000000
 MO|    121               0.096438               2.624212               0.000000
 MO|    122               0.097067               2.641331               0.000000
 MO|    123               0.100622               2.738063               0.000000
 MO|    124               0.109307               2.974402               0.000000
 MO|    125               0.112109               3.050628               0.000000
 MO|    126               0.113134               3.078529               0.000000
 MO|    127               0.119424               3.249705               0.000000
 MO|    128               0.120146               3.269351               0.000000
 MO|    129               0.128109               3.486033               0.000000
 MO|    130               0.133607               3.635622               0.000000
 MO|    131               0.143979               3.917859               0.000000
 MO|    132               0.144362               3.928299               0.000000
 MO|    133               0.158536               4.313983               0.000000
 MO|    134               0.159260               4.333679               0.000000
 MO|    135               0.160184               4.358841               0.000000
 MO|    136               0.162878               4.432140               0.000000
 MO|    137               0.165362               4.499731               0.000000
 MO|    138               0.166320               4.525800               0.000000
 MO|    139               0.166668               4.535260               0.000000
 MO|    140               0.168014               4.571883               0.000000
 MO|    141               0.174427               4.746406               0.000000
 MO|    142               0.176411               4.800400               0.000000
 MO|    143               0.186254               5.068221               0.000000
 MO|    144               0.187210               5.094247               0.000000
 MO|    145               0.199055               5.416556               0.000000
 MO|    146               0.203611               5.540533               0.000000
 MO|    147               0.204242               5.557704               0.000000
 MO|    148               0.204279               5.558708               0.000000
 MO|    149               0.210143               5.718269               0.000000
 MO|    150               0.210324               5.723217               0.000000
 MO|    151               0.212661               5.786797               0.000000
 MO|    152               0.219875               5.983090               0.000000
 MO|    153               0.220504               6.000220               0.000000
 MO|    154               0.221822               6.036078               0.000000
 MO|    155               0.234145               6.371400               0.000000
 MO|    156               0.239097               6.506155               0.000000
 MO|    157               0.239483               6.516653               0.000000
 MO|    158               0.242815               6.607338               0.000000
 MO|    159               0.244771               6.660558               0.000000
 MO|    160               0.245045               6.668010               0.000000
 MO|    161               0.246753               6.714486               0.000000
 MO|    162               0.249604               6.792082               0.000000
 MO|    163               0.268268               7.299952               0.000000
 MO|    164               0.268495               7.306128               0.000000
 MO|    165               0.270520               7.361233               0.000000
 MO|    166               0.274289               7.463781               0.000000
 MO|    167               0.284219               7.733981               0.000000
 MO|    168               0.287240               7.816211               0.000000
 MO|    169               0.289652               7.881836               0.000000
 MO|    170               0.295593               8.043493               0.000000
 MO|    171               0.305301               8.307659               0.000000
 MO|    172               0.307585               8.369808               0.000000
 MO|    173               0.308736               8.401121               0.000000
 MO|    174               0.309107               8.411222               0.000000
 MO|    175               0.318786               8.674604               0.000000
 MO|    176               0.322532               8.776544               0.000000
 MO|    177               0.328631               8.942516               0.000000
 MO|    178               0.331007               9.007151               0.000000
 MO|    179               0.338984               9.224229               0.000000
 MO|    180               0.340851               9.275027               0.000000
 MO|    181               0.341677               9.297510               0.000000
 MO|    182               0.343783               9.354809               0.000000
 MO|    183               0.360625               9.813110               0.000000
 MO|    184               0.365250               9.938968               0.000000
 MO|    185               0.366589               9.975386               0.000000
 MO|    186               0.375114              10.207369               0.000000
 MO|    187               0.379425              10.324667               0.000000
 MO|    188               0.391467              10.652359               0.000000
 MO|    189               0.396030              10.776522               0.000000
 MO|    190               0.399903              10.881906               0.000000
 MO|    191               0.406848              11.070905               0.000000
 MO|    192               0.410271              11.164041               0.000000
 MO| Sum:                                                             184.000000
 MO| E(Fermi):           -0.077107 a.u.         -2.098178 eV
 MO| Band gap:            0.095502 a.u.          2.598743 eV

    23 Broy./Diag. 0.40E+00    0.3     0.00001010     -1063.0427641921 -1.33E-04
  Decoupling Energy:                                              -0.0000129669

 MO| EIGENVALUES AND OCCUPATION NUMBERS AFTER SCF STEP 23
 MO|
 MO|  Index      Eigenvalue [a.u.]        Eigenvalue [eV]             Occupation
 MO|      1              -9.796354            -266.572362               2.000000
 MO|      2              -9.796335            -266.571819               2.000000
 MO|      3              -9.796327            -266.571611               2.000000
 MO|      4              -9.796316            -266.571322               2.000000
 MO|      5              -9.793922            -266.506177               2.000000
 MO|      6              -9.793899            -266.505550               2.000000
 MO|      7              -9.793821            -266.503416               2.000000
 MO|      8              -9.793786            -266.502478               2.000000
 MO|      9              -9.793757            -266.501682               2.000000
 MO|     10              -9.793603            -266.497498               2.000000
 MO|     11              -9.793472            -266.493931               2.000000
 MO|     12              -9.793465            -266.493746               2.000000
 MO|     13              -9.793464            -266.493698               2.000000
 MO|     14              -9.793377            -266.491348               2.000000
 MO|     15              -9.785936            -266.288859               2.000000
 MO|     16              -9.785934            -266.288802               2.000000
 MO|     17              -9.785925            -266.288569               2.000000
 MO|     18              -9.785921            -266.288465               2.000000
 MO|     19              -9.785413            -266.274618               2.000000
 MO|     20              -9.785396            -266.274158               2.000000
 MO|     21              -9.784184            -266.241175               2.000000
 MO|     22              -9.784183            -266.241162               2.000000
 MO|     23              -9.784156            -266.240422               2.000000
 MO|     24              -9.784152            -266.240325               2.000000
 MO|     25              -9.779779            -266.121320               2.000000
 MO|     26              -9.779777            -266.121279               2.000000
 MO|     27              -9.779693            -266.118972               2.000000
 MO|     28              -9.779691            -266.118913               2.000000
 MO|     29              -0.835253             -22.728388               2.000000
 MO|     30              -0.809952             -22.039914               2.000000
 MO|     31              -0.801311             -21.804769               2.000000
 MO|     32              -0.774907             -21.086299               2.000000
 MO|     33              -0.761478             -20.720884               2.000000
 MO|     34              -0.751049             -20.437091               2.000000
 MO|     35              -0.732765             -19.939545               2.000000
 MO|     36              -0.716398             -19.494186               2.000000
 MO|     37              -0.697628             -18.983435               2.000000
 MO|     38              -0.686200             -18.672444               2.000000
 MO|     39              -0.672811             -18.308127               2.000000
 MO|     40              -0.672081             -18.288251               2.000000
 MO|     41              -0.655299             -17.831580               2.000000
 MO|     42              -0.619135             -16.847522               2.000000
 MO|     43              -0.610390             -16.609546               2.000000
 MO|     44              -0.587795             -15.994711               2.000000
 MO|     45              -0.580063             -15.784305               2.000000
 MO|     46              -0.574734             -15.639297               2.000000
 MO|     47              -0.560723             -15.258062               2.000000
 MO|     48              -0.534568             -14.546340               2.000000
 MO|     49              -0.509318             -13.859252               2.000000
 MO|     50              -0.508401             -13.834301               2.000000
 MO|     51              -0.505972             -13.768203               2.000000
 MO|     52              -0.486329             -13.233674               2.000000
 MO|     53              -0.477657             -12.997715               2.000000
 MO|     54              -0.462548             -12.586561               2.000000
 MO|     55              -0.445829             -12.131619               2.000000
 MO|     56              -0.425992             -11.591826               2.000000
 MO|     57              -0.423029             -11.511203               2.000000
 MO|     58              -0.419522             -11.415780               2.000000
 MO|     59              -0.419015             -11.401989               2.000000
 MO|     60              -0.410310             -11.165104               2.000000
 MO|     61              -0.406894             -11.072136               2.000000
 MO|     62              -0.400463             -10.897151               2.000000
 MO|     63              -0.398384             -10.840572               2.000000
 MO|     64              -0.383472             -10.434802               2.000000
 MO|     65              -0.375612             -10.220926               2.000000
 MO|     66              -0.374610             -10.193656               2.000000
 MO|     67              -0.371407             -10.106494               2.000000
 MO|     68              -0.369111             -10.044012               2.000000
 MO|     69              -0.357569              -9.729948               2.000000
 MO|     70              -0.354461              -9.645380               2.000000
 MO|     71              -0.349285              -9.504521               2.000000
 MO|     72              -0.345453              -9.400255               2.000000
 MO|     73              -0.343870              -9.357177               2.000000
 MO|     74              -0.333660              -9.079338               2.000000
 MO|     75              -0.322275              -8.769559               2.000000
 MO|     76              -0.320118              -8.710866               2.000000
 MO|     77              -0.317037              -8.627024               2.000000
 MO|     78              -0.303343              -8.254375               2.000000
 MO|     79              -0.302489              -8.231152               2.000000
 MO|     80              -0.299745              -8.156470               2.000000
 MO|     81              -0.293766              -7.993789               2.000000
 MO|     82              -0.292563              -7.961041               2.000000
 MO|     83              -0.269167              -7.324401               2.000000
 MO|     84              -0.259099              -7.050438               2.000000
 MO|     85              -0.256494              -6.979566               2.000000
 MO|     86              -0.251494              -6.843487               2.000000
 MO|     87              -0.233860              -6.363645               2.000000
 MO|     88              -0.226703              -6.168899               2.000000
 MO|     89              -0.220751              -6.006943               2.000000
 MO|     90              -0.194024              -5.279656               2.000000
 MO|     91              -0.184005              -5.007036               2.000000
 MO|     92              -0.162285              -4.415987               2.000000
 MO|     93              -0.066783              -1.817246               0.000000
 MO|     94              -0.065555              -1.783830               0.000000
 MO|     95              -0.056611              -1.540466               0.000000
 MO|     96              -0.036706              -0.998828               0.000000
 MO|     97              -0.017065              -0.464361               0.000000
 MO|     98              -0.015962              -0.434352               0.000000
 MO|     99              -0.004173              -0.113550               0.000000
 MO|    100              -0.001544              -0.042006               0.000000
 MO|    101               0.005398               0.146899               0.000000
 MO|    102               0.008457               0.230124               0.000000
 MO|    103               0.011635               0.316595               0.000000
 MO|    104               0.013237               0.360187               0.000000
 MO|    105               0.016826               0.457854               0.000000
 MO|    106               0.027299               0.742834               0.000000
 MO|    107               0.031834               0.866243               0.000000
 MO|    108               0.043010               1.170357               0.000000
 MO|    109               0.045386               1.235020               0.000000
 MO|    110               0.051015               1.388198               0.000000
 MO|    111               0.056013               1.524196               0.000000
 MO|    112               0.056349               1.533341               0.000000
 MO|    113               0.060362               1.642536               0.000000
 MO|    114               0.066260               1.803030               0.000000
 MO|    115               0.067855               1.846422               0.000000
 MO|    116               0.070687               1.923484               0.000000
 MO|    117               0.076114               2.071163               0.000000
 MO|    118               0.077632               2.112488               0.000000
 MO|    119               0.084510               2.299630               0.000000
 MO|    120               0.095748               2.605422               0.000000
 MO|    121               0.096437               2.624182               0.000000
 MO|    122               0.097066               2.641311               0.000000
 MO|    123               0.100616               2.737909               0.000000
 MO|    124               0.109305               2.974337               0.000000
 MO|    125               0.112110               3.050660               0.000000
 MO|    126               0.113131               3.078454               0.000000
 MO|    127               0.119423               3.249662               0.000000
 MO|    128               0.120145               3.269320               0.000000
 MO|    129               0.128105               3.485926               0.000000
 MO|    130               0.133601               3.635468               0.000000
 MO|    131               0.143981               3.917932               0.000000
 MO|    132               0.144358               3.928190               0.000000
 MO|    133               0.158539               4.314074               0.000000
 MO|    134               0.159256               4.333569               0.000000
 MO|    135               0.160184               4.358835               0.000000
 MO|    136               0.162874               4.432022               0.000000
 MO|    137               0.165358               4.499611               0.000000
 MO|    138               0.166318               4.525730               0.000000
 MO|    139               0.166668               4.535277               0.000000
 MO|    140               0.168011               4.571818               0.000000
 MO|    141               0.174425               4.746347               0.000000
 MO|    142               0.176409               4.800333               0.000000
 MO|    143               0.186250               5.068115               0.000000
 MO|    144               0.187211               5.094265               0.000000
 MO|    145               0.199052               5.416484               0.000000
 MO|    146               0.203609               5.540475               0.000000
 MO|    147               0.204240               5.557641               0.000000
 MO|    148               0.204275               5.558600               0.000000
 MO|    149               0.210141               5.718236               0.000000
 MO|    150               0.210319               5.723067               0.000000
 MO|    151               0.212661               5.786789               0.000000
 MO|    152               0.219872               5.983031               0.000000
 MO|    153               0.220502               6.000152               0.000000
 MO|    154               0.221821               6.036058               0.000000
 MO|    155               0.234141               6.371312               0.000000
 MO|    156               0.239097               6.506149               0.000000
 MO|    157               0.239482               6.516645               0.000000
 MO|    158               0.242813               6.607267               0.000000
 MO|    159               0.244768               6.660479               0.000000
 MO|    160               0.245045               6.668003               0.000000
 MO|    161               0.246749               6.714383               0.000000
 MO|    162               0.249603               6.792034               0.000000
 MO|    163               0.268263               7.299814               0.000000
 MO|    164               0.268491               7.306003               0.000000
 MO|    165               0.270516               7.361104               0.000000
 MO|    166               0.274284               7.463643               0.000000
 MO|    167               0.284216               7.733920               0.000000
 MO|    168               0.287238               7.816153               0.000000
 MO|    169               0.289651               7.881799               0.000000
 MO|    170               0.295592               8.043463               0.000000
 MO|    171               0.305300               8.307623               0.000000
 MO|    172               0.307583               8.369765               0.000000
 MO|    173               0.308733               8.401061               0.000000
 MO|    174               0.309107               8.411232               0.000000
 MO|    175               0.318784               8.674541               0.000000
 MO|    176               0.322529               8.776462               0.000000
 MO|    177               0.328629               8.942437               0.000000
 MO|    178               0.331005               9.007115               0.000000
 MO|    179               0.338981               9.224134               0.000000
 MO|    180               0.340848               9.274939               0.000000
 MO|    181               0.341679               9.297569               0.000000
 MO|    182               0.343783               9.354801               0.000000
 MO|    183               0.360622               9.813011               0.000000
 MO|    184               0.365249               9.938929               0.000000
 MO|    185               0.366584               9.975269               0.000000
 MO|    186               0.375109              10.207233               0.000000
 MO|    187               0.379415              10.324413               0.000000
 MO|    188               0.391463              10.652257               0.000000
 MO|    189               0.396029              10.776498               0.000000
 MO|    190               0.399900              10.881829               0.000000
 MO|    191               0.406844              11.070795               0.000000
 MO|    192               0.410268              11.163953               0.000000
 MO| Sum:                                                             184.000000
 MO| E(Fermi):           -0.077106 a.u.         -2.098158 eV
 MO| Band gap:            0.095502 a.u.          2.598741 eV

    24 Broy./Diag. 0.40E+00    0.3     0.00000965     -1063.0427770622 -1.29E-05
  Decoupling Energy:                                              -0.0000129294

 MO| EIGENVALUES AND OCCUPATION NUMBERS AFTER SCF STEP 24
 MO|
 MO|  Index      Eigenvalue [a.u.]        Eigenvalue [eV]             Occupation
 MO|      1              -9.796353            -266.572334               2.000000
 MO|      2              -9.796333            -266.571791               2.000000
 MO|      3              -9.796326            -266.571582               2.000000
 MO|      4              -9.796315            -266.571293               2.000000
 MO|      5              -9.793921            -266.506156               2.000000
 MO|      6              -9.793898            -266.505529               2.000000
 MO|      7              -9.793820            -266.503395               2.000000
 MO|      8              -9.793786            -266.502457               2.000000
 MO|      9              -9.793756            -266.501661               2.000000
 MO|     10              -9.793602            -266.497476               2.000000
 MO|     11              -9.793471            -266.493909               2.000000
 MO|     12              -9.793465            -266.493725               2.000000
 MO|     13              -9.793463            -266.493677               2.000000
 MO|     14              -9.793376            -266.491327               2.000000
 MO|     15              -9.785935            -266.288835               2.000000
 MO|     16              -9.785933            -266.288779               2.000000
 MO|     17              -9.785924            -266.288546               2.000000
 MO|     18              -9.785921            -266.288442               2.000000
 MO|     19              -9.785412            -266.274590               2.000000
 MO|     20              -9.785395            -266.274130               2.000000
 MO|     21              -9.784183            -266.241148               2.000000
 MO|     22              -9.784182            -266.241134               2.000000
 MO|     23              -9.784155            -266.240394               2.000000
 MO|     24              -9.784151            -266.240297               2.000000
 MO|     25              -9.779778            -266.121301               2.000000
 MO|     26              -9.779777            -266.121260               2.000000
 MO|     27              -9.779692            -266.118952               2.000000
 MO|     28              -9.779690            -266.118894               2.000000
 MO|     29              -0.835252             -22.728367               2.000000
 MO|     30              -0.809951             -22.039891               2.000000
 MO|     31              -0.801310             -21.804747               2.000000
 MO|     32              -0.774906             -21.086274               2.000000
 MO|     33              -0.761478             -20.720861               2.000000
 MO|     34              -0.751048             -20.437069               2.000000
 MO|     35              -0.732764             -19.939520               2.000000
 MO|     36              -0.716397             -19.494163               2.000000
 MO|     37              -0.697628             -18.983415               2.000000
 MO|     38              -0.686199             -18.672420               2.000000
 MO|     39              -0.672810             -18.308102               2.000000
 MO|     40              -0.672080             -18.288228               2.000000
 MO|     41              -0.655298             -17.831556               2.000000
 MO|     42              -0.619134             -16.847499               2.000000
 MO|     43              -0.610389             -16.609523               2.000000
 MO|     44              -0.587794             -15.994689               2.000000
 MO|     45              -0.580062             -15.784282               2.000000
 MO|     46              -0.574733             -15.639273               2.000000
 MO|     47              -0.560723             -15.258038               2.000000
 MO|     48              -0.534567             -14.546315               2.000000
 MO|     49              -0.509317             -13.859230               2.000000
 MO|     50              -0.508400             -13.834278               2.000000
 MO|     51              -0.505971             -13.768178               2.000000
 MO|     52              -0.486328             -13.233650               2.000000
 MO|     53              -0.477656             -12.997690               2.000000
 MO|     54              -0.462547             -12.586537               2.000000
 MO|     55              -0.445828             -12.131593               2.000000
 MO|     56              -0.425991             -11.591801               2.000000
 MO|     57              -0.423028             -11.511179               2.000000
 MO|     58              -0.419521             -11.415754               2.000000
 MO|     59              -0.419014             -11.401963               2.000000
 MO|     60              -0.410309             -11.165082               2.000000
 MO|     61              -0.406893             -11.072118               2.000000
 MO|     62              -0.400462             -10.897124               2.000000
 MO|     63              -0.398383             -10.840554               2.000000
 MO|     64              -0.383471             -10.434778               2.000000
 MO|     65              -0.375611             -10.220900               2.000000
 MO|     66              -0.374609             -10.193631               2.000000
 MO|     67              -0.371406             -10.106469               2.000000
 MO|     68              -0.369110             -10.043988               2.000000
 MO|     69              -0.357568              -9.729923               2.000000
 MO|     70              -0.354461              -9.645365               2.000000
 MO|     71              -0.349284              -9.504502               2.000000
 MO|     72              -0.345452              -9.400231               2.000000
 MO|     73              -0.343869              -9.357151               2.000000
 MO|     74              -0.333659              -9.079311               2.000000
 MO|     75              -0.322274              -8.769532               2.000000
 MO|     76              -0.320117              -8.710840               2.000000
 MO|     77              -0.317036              -8.627001               2.000000
 MO|     78              -0.303342              -8.254350               2.000000
 MO|     79              -0.302489              -8.231133               2.000000
 MO|     80              -0.299744              -8.156446               2.000000
 MO|     81              -0.293765              -7.993763               2.000000
 MO|     82              -0.292562              -7.961022               2.000000
 MO|     83              -0.269166              -7.324377               2.000000
 MO|     84              -0.259098              -7.050414               2.000000
 MO|     85              -0.256494              -6.979544               2.000000
 MO|     86              -0.251493              -6.843468               2.000000
 MO|     87              -0.233859              -6.363625               2.000000
 MO|     88              -0.226702              -6.168878               2.000000
 MO|     89              -0.220750              -6.006920               2.000000
 MO|     90              -0.194023              -5.279636               2.000000
 MO|     91              -0.184004              -5.007014               2.000000
 MO|     92              -0.162284              -4.415968               2.000000
 MO|     93              -0.066782              -1.817229               0.000000
 MO|     94              -0.065554              -1.783816               0.000000
 MO|     95              -0.056610              -1.540448               0.000000
 MO|     96              -0.036706              -0.998809               0.000000
 MO|     97              -0.017064              -0.464343               0.000000
 MO|     98              -0.015962              -0.434350               0.000000
 MO|     99              -0.004178              -0.113687               0.000000
 MO|    100              -0.001549              -0.042151               0.000000
 MO|    101               0.005393               0.146741               0.000000
 MO|    102               0.008457               0.230140               0.000000
 MO|    103               0.011628               0.316417               0.000000
 MO|    104               0.013237               0.360201               0.000000
 MO|    105               0.016819               0.457679               0.000000
 MO|    106               0.027292               0.742661               0.000000
 MO|    107               0.031826               0.866024               0.000000
 MO|    108               0.043008               1.170317               0.000000
 MO|    109               0.045381               1.234874               0.000000
 MO|    110               0.051006               1.387935               0.000000
 MO|    111               0.056009               1.524090               0.000000
 MO|    112               0.056346               1.533249               0.000000
 MO|    113               0.060361               1.642519               0.000000
 MO|    114               0.066259               1.802995               0.000000
 MO|    115               0.067847               1.846206               0.000000
 MO|    116               0.070686               1.923460               0.000000
 MO|    117               0.076108               2.071011               0.000000
 MO|    118               0.077631               2.112436               0.000000
 MO|    119               0.084507               2.299552               0.000000
 MO|    120               0.095740               2.605226               0.000000
 MO|    121               0.096435               2.624122               0.000000
 MO|    122               0.097066               2.641293               0.000000
 MO|    123               0.100612               2.737791               0.000000
 MO|    124               0.109302               2.974264               0.000000
 MO|    125               0.112110               3.050658               0.000000
 MO|    126               0.113128               3.078382               0.000000
 MO|    127               0.119419               3.249563               0.000000
 MO|    128               0.120142               3.269242               0.000000
 MO|    129               0.128101               3.485815               0.000000
 MO|    130               0.133594               3.635284               0.000000
 MO|    131               0.143981               3.917926               0.000000
 MO|    132               0.144355               3.928089               0.000000
 MO|    133               0.158538               4.314036               0.000000
 MO|    134               0.159251               4.333437               0.000000
 MO|    135               0.160182               4.358769               0.000000
 MO|    136               0.162868               4.431855               0.000000
 MO|    137               0.165352               4.499468               0.000000
 MO|    138               0.166312               4.525585               0.000000
 MO|    139               0.166669               4.535285               0.000000
 MO|    140               0.168006               4.571682               0.000000
 MO|    141               0.174421               4.746244               0.000000
 MO|    142               0.176407               4.800268               0.000000
 MO|    143               0.186246               5.068024               0.000000
 MO|    144               0.187206               5.094127               0.000000
 MO|    145               0.199049               5.416405               0.000000
 MO|    146               0.203603               5.540327               0.000000
 MO|    147               0.204236               5.557536               0.000000
 MO|    148               0.204269               5.558440               0.000000
 MO|    149               0.210134               5.718039               0.000000
 MO|    150               0.210314               5.722925               0.000000
 MO|    151               0.212658               5.786718               0.000000
 MO|    152               0.219869               5.982929               0.000000
 MO|    153               0.220498               6.000061               0.000000
 MO|    154               0.221818               6.035970               0.000000
 MO|    155               0.234137               6.371198               0.000000
 MO|    156               0.239093               6.506042               0.000000
 MO|    157               0.239481               6.516609               0.000000
 MO|    158               0.242808               6.607141               0.000000
 MO|    159               0.244766               6.660415               0.000000
 MO|    160               0.245041               6.667895               0.000000
 MO|    161               0.246743               6.714210               0.000000
 MO|    162               0.249599               6.791930               0.000000
 MO|    163               0.268254               7.299556               0.000000
 MO|    164               0.268487               7.305892               0.000000
 MO|    165               0.270508               7.360897               0.000000
 MO|    166               0.274277               7.463454               0.000000
 MO|    167               0.284212               7.733814               0.000000
 MO|    168               0.287232               7.815976               0.000000
 MO|    169               0.289647               7.881687               0.000000
 MO|    170               0.295590               8.043401               0.000000
 MO|    171               0.305296               8.307534               0.000000
 MO|    172               0.307581               8.369693               0.000000
 MO|    173               0.308728               8.400908               0.000000
 MO|    174               0.309106               8.411207               0.000000
 MO|    175               0.318775               8.674319               0.000000
 MO|    176               0.322525               8.776360               0.000000
 MO|    177               0.328621               8.942245               0.000000
 MO|    178               0.331003               9.007044               0.000000
 MO|    179               0.338976               9.224008               0.000000
 MO|    180               0.340843               9.274818               0.000000
 MO|    181               0.341677               9.297512               0.000000
 MO|    182               0.343782               9.354776               0.000000
 MO|    183               0.360618               9.812921               0.000000
 MO|    184               0.365247               9.938876               0.000000
 MO|    185               0.366580               9.975143               0.000000
 MO|    186               0.375103              10.207071               0.000000
 MO|    187               0.379403              10.324089               0.000000
 MO|    188               0.391458              10.652125               0.000000
 MO|    189               0.396026              10.776418               0.000000
 MO|    190               0.399893              10.881649               0.000000
 MO|    191               0.406840              11.070669               0.000000
 MO|    192               0.410259              11.163729               0.000000
 MO| Sum:                                                             184.000000
 MO| E(Fermi):           -0.077105 a.u.         -2.098141 eV
 MO| Band gap:            0.095502 a.u.          2.598739 eV

    25 Broy./Diag. 0.40E+00    0.3     0.00000263     -1063.0427595838  1.75E-05
  Decoupling Energy:                                              -0.0000129281

 MO| EIGENVALUES AND OCCUPATION NUMBERS AFTER SCF STEP 25
 MO|
 MO|  Index      Eigenvalue [a.u.]        Eigenvalue [eV]             Occupation
 MO|      1              -9.796353            -266.572330               2.000000
 MO|      2              -9.796333            -266.571787               2.000000
 MO|      3              -9.796326            -266.571578               2.000000
 MO|      4              -9.796315            -266.571290               2.000000
 MO|      5              -9.793921            -266.506148               2.000000
 MO|      6              -9.793898            -266.505521               2.000000
 MO|      7              -9.793820            -266.503387               2.000000
 MO|      8              -9.793785            -266.502449               2.000000
 MO|      9              -9.793756            -266.501652               2.000000
 MO|     10              -9.793602            -266.497468               2.000000
 MO|     11              -9.793471            -266.493901               2.000000
 MO|     12              -9.793464            -266.493717               2.000000
 MO|     13              -9.793463            -266.493668               2.000000
 MO|     14              -9.793376            -266.491319               2.000000
 MO|     15              -9.785935            -266.288821               2.000000
 MO|     16              -9.785932            -266.288765               2.000000
 MO|     17              -9.785924            -266.288532               2.000000
 MO|     18              -9.785920            -266.288428               2.000000
 MO|     19              -9.785411            -266.274573               2.000000
 MO|     20              -9.785394            -266.274113               2.000000
 MO|     21              -9.784182            -266.241137               2.000000
 MO|     22              -9.784182            -266.241123               2.000000
 MO|     23              -9.784154            -266.240383               2.000000
 MO|     24              -9.784151            -266.240286               2.000000
 MO|     25              -9.779778            -266.121287               2.000000
 MO|     26              -9.779776            -266.121245               2.000000
 MO|     27              -9.779691            -266.118938               2.000000
 MO|     28              -9.779689            -266.118879               2.000000
 MO|     29              -0.835252             -22.728355               2.000000
 MO|     30              -0.809951             -22.039878               2.000000
 MO|     31              -0.801309             -21.804733               2.000000
 MO|     32              -0.774906             -21.086260               2.000000
 MO|     33              -0.761477             -20.720848               2.000000
 MO|     34              -0.751048             -20.437055               2.000000
 MO|     35              -0.732763             -19.939506               2.000000
 MO|     36              -0.716397             -19.494149               2.000000
 MO|     37              -0.697627             -18.983401               2.000000
 MO|     38              -0.686198             -18.672407               2.000000
 MO|     39              -0.672810             -18.308089               2.000000
 MO|     40              -0.672080             -18.288215               2.000000
 MO|     41              -0.655297             -17.831543               2.000000
 MO|     42              -0.619134             -16.847484               2.000000
 MO|     43              -0.610388             -16.609509               2.000000
 MO|     44              -0.587794             -15.994675               2.000000
 MO|     45              -0.580061             -15.784268               2.000000
 MO|     46              -0.574732             -15.639259               2.000000
 MO|     47              -0.560722             -15.258025               2.000000
 MO|     48              -0.534567             -14.546302               2.000000
 MO|     49              -0.509317             -13.859215               2.000000
 MO|     50              -0.508400             -13.834263               2.000000
 MO|     51              -0.505971             -13.768165               2.000000
 MO|     52              -0.486327             -13.233636               2.000000
 MO|     53              -0.477656             -12.997677               2.000000
 MO|     54              -0.462546             -12.586524               2.000000
 MO|     55              -0.445827             -12.131580               2.000000
 MO|     56              -0.425990             -11.591788               2.000000
 MO|     57              -0.423028             -11.511165               2.000000
 MO|     58              -0.419521             -11.415740               2.000000
 MO|     59              -0.419014             -11.401950               2.000000
 MO|     60              -0.410309             -11.165067               2.000000
 MO|     61              -0.406892             -11.072106               2.000000
 MO|     62              -0.400461             -10.897111               2.000000
 MO|     63              -0.398383             -10.840540               2.000000
 MO|     64              -0.383471             -10.434765               2.000000
 MO|     65              -0.375611             -10.220887               2.000000
 MO|     66              -0.374609             -10.193617               2.000000
 MO|     67              -0.371405             -10.106456               2.000000
 MO|     68              -0.369109             -10.043975               2.000000
 MO|     69              -0.357568              -9.729910               2.000000
 MO|     70              -0.354460              -9.645353               2.000000
 MO|     71              -0.349284              -9.504491               2.000000
 MO|     72              -0.345452              -9.400217               2.000000
 MO|     73              -0.343868              -9.357138               2.000000
 MO|     74              -0.333658              -9.079298               2.000000
 MO|     75              -0.322274              -8.769519               2.000000
 MO|     76              -0.320117              -8.710827               2.000000
 MO|     77              -0.317036              -8.626989               2.000000
 MO|     78              -0.303341              -8.254336               2.000000
 MO|     79              -0.302488              -8.231120               2.000000
 MO|     80              -0.299743              -8.156432               2.000000
 MO|     81              -0.293765              -7.993749               2.000000
 MO|     82              -0.292562              -7.961011               2.000000
 MO|     83              -0.269165              -7.324364               2.000000
 MO|     84              -0.259097              -7.050401               2.000000
 MO|     85              -0.256493              -6.979532               2.000000
 MO|     86              -0.251492              -6.843457               2.000000
 MO|     87              -0.233858              -6.363612               2.000000
 MO|     88              -0.226702              -6.168867               2.000000
 MO|     89              -0.220750              -6.006909               2.000000
 MO|     90              -0.194023              -5.279624               2.000000
 MO|     91              -0.184004              -5.007001               2.000000
 MO|     92              -0.162283              -4.415956               2.000000
 MO|     93              -0.066782              -1.817219               0.000000
 MO|     94              -0.065554              -1.783808               0.000000
 MO|     95              -0.056610              -1.540438               0.000000
 MO|     96              -0.036705              -0.998799               0.000000
 MO|     97              -0.017064              -0.464333               0.000000
 MO|     98              -0.015962              -0.434350               0.000000
 MO|     99              -0.004181              -0.113765               0.000000
 MO|    100              -0.001552              -0.042238               0.000000
 MO|    101               0.005390               0.146661               0.000000
 MO|    102               0.008458               0.230149               0.000000
 MO|    103               0.011624               0.316314               0.000000
 MO|    104               0.013237               0.360207               0.000000
 MO|    105               0.016816               0.457592               0.000000
 MO|    106               0.027289               0.742568               0.000000
 MO|    107               0.031821               0.865903               0.000000
 MO|    108               0.043007               1.170287               0.000000
 MO|    109               0.045378               1.234799               0.000000
 MO|    110               0.051000               1.387769               0.000000
 MO|    111               0.056006               1.523996               0.000000
 MO|    112               0.056343               1.533175               0.000000
 MO|    113               0.060361               1.642499               0.000000
 MO|    114               0.066258               1.802982               0.000000
 MO|    115               0.067842               1.846078               0.000000
 MO|    116               0.070685               1.923449               0.000000
 MO|    117               0.076105               2.070929               0.000000
 MO|    118               0.077630               2.112414               0.000000
 MO|    119               0.084506               2.299520               0.000000
 MO|    120               0.095736               2.605097               0.000000
 MO|    121               0.096433               2.624075               0.000000
 MO|    122               0.097065               2.641285               0.000000
 MO|    123               0.100610               2.737744               0.000000
 MO|    124               0.109301               2.974226               0.000000
 MO|    125               0.112109               3.050652               0.000000
 MO|    126               0.113127               3.078350               0.000000
 MO|    127               0.119416               3.249482               0.000000
 MO|    128               0.120140               3.269184               0.000000
 MO|    129               0.128099               3.485755               0.000000
 MO|    130               0.133590               3.635170               0.000000
 MO|    131               0.143980               3.917903               0.000000
 MO|    132               0.144353               3.928038               0.000000
 MO|    133               0.158536               4.313973               0.000000
 MO|    134               0.159248               4.333356               0.000000
 MO|    135               0.160180               4.358712               0.000000
 MO|    136               0.162864               4.431744               0.000000
 MO|    137               0.165349               4.499379               0.000000
 MO|    138               0.166308               4.525475               0.000000
 MO|    139               0.166669               4.535291               0.000000
 MO|    140               0.168003               4.571583               0.000000
 MO|    141               0.174419               4.746176               0.000000
 MO|    142               0.176405               4.800237               0.000000
 MO|    143               0.186245               5.067983               0.000000
 MO|    144               0.187201               5.094006               0.000000
 MO|    145               0.199048               5.416360               0.000000
 MO|    146               0.203599               5.540211               0.000000
 MO|    147               0.204233               5.557464               0.000000
 MO|    148               0.204265               5.558331               0.000000
 MO|    149               0.210128               5.717876               0.000000
 MO|    150               0.210311               5.722852               0.000000
 MO|    151               0.212656               5.786660               0.000000
 MO|    152               0.219866               5.982862               0.000000
 MO|    153               0.220496               6.000000               0.000000
 MO|    154               0.221815               6.035903               0.000000
 MO|    155               0.234135               6.371126               0.000000
 MO|    156               0.239089               6.505954               0.000000
 MO|    157               0.239480               6.516583               0.000000
 MO|    158               0.242805               6.607049               0.000000
 MO|    159               0.244765               6.660390               0.000000
 MO|    160               0.245037               6.667807               0.000000
 MO|    161               0.246738               6.714085               0.000000
 MO|    162               0.249596               6.791852               0.000000
 MO|    163               0.268247               7.299362               0.000000
 MO|    164               0.268485               7.305839               0.000000
 MO|    165               0.270503               7.360749               0.000000
 MO|    166               0.274272               7.463331               0.000000
 MO|    167               0.284210               7.733740               0.000000
 MO|    168               0.287227               7.815832               0.000000
 MO|    169               0.289644               7.881607               0.000000
 MO|    170               0.295588               8.043359               0.000000
 MO|    171               0.305294               8.307472               0.000000
 MO|    172               0.307579               8.369648               0.000000
 MO|    173               0.308724               8.400795               0.000000
 MO|    174               0.309105               8.411185               0.000000
 MO|    175               0.318769               8.674132               0.000000
 MO|    176               0.322523               8.776298               0.000000
 MO|    177               0.328616               8.942093               0.000000
 MO|    178               0.331001               9.006991               0.000000
 MO|    179               0.338973               9.223931               0.000000
 MO|    180               0.340840               9.274739               0.000000
 MO|    181               0.341675               9.297445               0.000000
 MO|    182               0.343781               9.354763               0.000000
 MO|    183               0.360617               9.812879               0.000000
 MO|    184               0.365246               9.938845               0.000000
 MO|    185               0.366577               9.975070               0.000000
 MO|    186               0.375099              10.206973               0.000000
 MO|    187               0.379395              10.323872               0.000000
 MO|    188               0.391455              10.652041               0.000000
 MO|    189               0.396024              10.776352               0.000000
 MO|    190               0.399888              10.881508               0.000000
 MO|    191               0.406837              11.070595               0.000000
 MO|    192               0.410252              11.163536               0.000000
 MO| Sum:                                                             184.000000
 MO| E(Fermi):           -0.077105 a.u.         -2.098131 eV
 MO| Band gap:            0.095502 a.u.          2.598737 eV

    26 Broy./Diag. 0.40E+00    0.3     0.00000206     -1063.0427564134  3.17E-06
  Decoupling Energy:                                              -0.0000129400

 MO| EIGENVALUES AND OCCUPATION NUMBERS AFTER SCF STEP 26
 MO|
 MO|  Index      Eigenvalue [a.u.]        Eigenvalue [eV]             Occupation
 MO|      1              -9.796353            -266.572327               2.000000
 MO|      2              -9.796333            -266.571784               2.000000
 MO|      3              -9.796326            -266.571575               2.000000
 MO|      4              -9.796315            -266.571286               2.000000
 MO|      5              -9.793921            -266.506148               2.000000
 MO|      6              -9.793898            -266.505521               2.000000
 MO|      7              -9.793820            -266.503388               2.000000
 MO|      8              -9.793785            -266.502449               2.000000
 MO|      9              -9.793756            -266.501653               2.000000
 MO|     10              -9.793602            -266.497468               2.000000
 MO|     11              -9.793471            -266.493902               2.000000
 MO|     12              -9.793464            -266.493717               2.000000
 MO|     13              -9.793463            -266.493669               2.000000
 MO|     14              -9.793376            -266.491320               2.000000
 MO|     15              -9.785935            -266.288821               2.000000
 MO|     16              -9.785932            -266.288764               2.000000
 MO|     17              -9.785924            -266.288532               2.000000
 MO|     18              -9.785920            -266.288427               2.000000
 MO|     19              -9.785411            -266.274569               2.000000
 MO|     20              -9.785394            -266.274109               2.000000
 MO|     21              -9.784182            -266.241134               2.000000
 MO|     22              -9.784182            -266.241121               2.000000
 MO|     23              -9.784154            -266.240380               2.000000
 MO|     24              -9.784151            -266.240283               2.000000
 MO|     25              -9.779778            -266.121286               2.000000
 MO|     26              -9.779776            -266.121245               2.000000
 MO|     27              -9.779691            -266.118937               2.000000
 MO|     28              -9.779689            -266.118879               2.000000
 MO|     29              -0.835252             -22.728352               2.000000
 MO|     30              -0.809951             -22.039875               2.000000
 MO|     31              -0.801309             -21.804731               2.000000
 MO|     32              -0.774906             -21.086257               2.000000
 MO|     33              -0.761477             -20.720843               2.000000
 MO|     34              -0.751048             -20.437052               2.000000
 MO|     35              -0.732763             -19.939502               2.000000
 MO|     36              -0.716397             -19.494145               2.000000
 MO|     37              -0.697627             -18.983397               2.000000
 MO|     38              -0.686198             -18.672403               2.000000
 MO|     39              -0.672810             -18.308085               2.000000
 MO|     40              -0.672079             -18.288211               2.000000
 MO|     41              -0.655297             -17.831540               2.000000
 MO|     42              -0.619134             -16.847480               2.000000
 MO|     43              -0.610388             -16.609504               2.000000
 MO|     44              -0.587793             -15.994671               2.000000
 MO|     45              -0.580061             -15.784265               2.000000
 MO|     46              -0.574732             -15.639256               2.000000
 MO|     47              -0.560722             -15.258022               2.000000
 MO|     48              -0.534567             -14.546298               2.000000
 MO|     49              -0.509317             -13.859210               2.000000
 MO|     50              -0.508400             -13.834259               2.000000
 MO|     51              -0.505971             -13.768162               2.000000
 MO|     52              -0.486327             -13.233632               2.000000
 MO|     53              -0.477656             -12.997673               2.000000
 MO|     54              -0.462546             -12.586519               2.000000
 MO|     55              -0.445827             -12.131575               2.000000
 MO|     56              -0.425990             -11.591784               2.000000
 MO|     57              -0.423027             -11.511161               2.000000
 MO|     58              -0.419521             -11.415736               2.000000
 MO|     59              -0.419014             -11.401946               2.000000
 MO|     60              -0.410308             -11.165062               2.000000
 MO|     61              -0.406892             -11.072102               2.000000
 MO|     62              -0.400461             -10.897107               2.000000
 MO|     63              -0.398382             -10.840534               2.000000
 MO|     64              -0.383470             -10.434761               2.000000
 MO|     65              -0.375611             -10.220883               2.000000
 MO|     66              -0.374608             -10.193613               2.000000
 MO|     67              -0.371405             -10.106451               2.000000
 MO|     68              -0.369109             -10.043971               2.000000
 MO|     69              -0.357567              -9.729906               2.000000
 MO|     70              -0.354460              -9.645349               2.000000
 MO|     71              -0.349284              -9.504490               2.000000
 MO|     72              -0.345451              -9.400212               2.000000
 MO|     73              -0.343868              -9.357134               2.000000
 MO|     74              -0.333658              -9.079293               2.000000
 MO|     75              -0.322274              -8.769514               2.000000
 MO|     76              -0.320117              -8.710822               2.000000
 MO|     77              -0.317036              -8.626987               2.000000
 MO|     78              -0.303341              -8.254332               2.000000
 MO|     79              -0.302488              -8.231117               2.000000
 MO|     80              -0.299743              -8.156428               2.000000
 MO|     81              -0.293765              -7.993745               2.000000
 MO|     82              -0.292562              -7.961009               2.000000
 MO|     83              -0.269165              -7.324360               2.000000
 MO|     84              -0.259097              -7.050397               2.000000
 MO|     85              -0.256493              -6.979530               2.000000
 MO|     86              -0.251492              -6.843455               2.000000
 MO|     87              -0.233858              -6.363610               2.000000
 MO|     88              -0.226702              -6.168865               2.000000
 MO|     89              -0.220750              -6.006907               2.000000
 MO|     90              -0.194023              -5.279623               2.000000
 MO|     91              -0.184004              -5.006998               2.000000
 MO|     92              -0.162283              -4.415954               2.000000
 MO|     93              -0.066781              -1.817217               0.000000
 MO|     94              -0.065554              -1.783806               0.000000
 MO|     95              -0.056610              -1.540437               0.000000
 MO|     96              -0.036705              -0.998797               0.000000
 MO|     97              -0.017064              -0.464331               0.000000
 MO|     98              -0.015962              -0.434351               0.000000
 MO|     99              -0.004182              -0.113793               0.000000
 MO|    100              -0.001553              -0.042270               0.000000
 MO|    101               0.005389               0.146632               0.000000
 MO|    102               0.008458               0.230151               0.000000
 MO|    103               0.011623               0.316273               0.000000
 MO|    104               0.013237               0.360208               0.000000
 MO|    105               0.016815               0.457564               0.000000
 MO|    106               0.027288               0.742537               0.000000
 MO|    107               0.031820               0.865857               0.000000
 MO|    108               0.043007               1.170278               0.000000
 MO|    109               0.045377               1.234778               0.000000
 MO|    110               0.050997               1.387695               0.000000
 MO|    111               0.056004               1.523950               0.000000
 MO|    112               0.056342               1.533141               0.000000
 MO|    113               0.060360               1.642491               0.000000
 MO|    114               0.066258               1.802981               0.000000
 MO|    115               0.067840               1.846028               0.000000
 MO|    116               0.070685               1.923445               0.000000
 MO|    117               0.076104               2.070898               0.000000
 MO|    118               0.077630               2.112410               0.000000
 MO|    119               0.084506               2.299514               0.000000
 MO|    120               0.095733               2.605038               0.000000
 MO|    121               0.096432               2.624046               0.000000
 MO|    122               0.097065               2.641283               0.000000
 MO|    123               0.100610               2.737737               0.000000
 MO|    124               0.109300               2.974216               0.000000
 MO|    125               0.112109               3.050651               0.000000
 MO|    126               0.113127               3.078342               0.000000
 MO|    127               0.119415               3.249437               0.000000
 MO|    128               0.120139               3.269155               0.000000
 MO|    129               0.128098               3.485731               0.000000
 MO|    130               0.133588               3.635126               0.000000
 MO|    131               0.143980               3.917893               0.000000
 MO|    132               0.144352               3.928022               0.000000
 MO|    133               0.158534               4.313938               0.000000
 MO|    134               0.159247               4.333323               0.000000
 MO|    135               0.160179               4.358681               0.000000
 MO|    136               0.162862               4.431696               0.000000
 MO|    137               0.165348               4.499341               0.000000
 MO|    138               0.166306               4.525418               0.000000
 MO|    139               0.166669               4.535292               0.000000
 MO|    140               0.168001               4.571541               0.000000
 MO|    141               0.174418               4.746150               0.000000
 MO|    142               0.176405               4.800228               0.000000
 MO|    143               0.186245               5.067973               0.000000
 MO|    144               0.187199               5.093955               0.000000
 MO|    145               0.199047               5.416343               0.000000
 MO|    146               0.203597               5.540154               0.000000
 MO|    147               0.204232               5.557429               0.000000
 MO|    148               0.204263               5.558279               0.000000
 MO|    149               0.210125               5.717804               0.000000
 MO|    150               0.210310               5.722829               0.000000
 MO|    151               0.212655               5.786634               0.000000
 MO|    152               0.219865               5.982837               0.000000
 MO|    153               0.220495               5.999973               0.000000
 MO|    154               0.221814               6.035873               0.000000
 MO|    155               0.234133               6.371094               0.000000
 MO|    156               0.239088               6.505917               0.000000
 MO|    157               0.239480               6.516569               0.000000
 MO|    158               0.242803               6.607008               0.000000
 MO|    159               0.244765               6.660388               0.000000
 MO|    160               0.245036               6.667770               0.000000
 MO|    161               0.246736               6.714024               0.000000
 MO|    162               0.249595               6.791815               0.000000
 MO|    163               0.268243               7.299264               0.000000
 MO|    164               0.268484               7.305824               0.000000
 MO|    165               0.270500               7.360677               0.000000
 MO|    166               0.274270               7.463276               0.000000
 MO|    167               0.284208               7.733705               0.000000
 MO|    168               0.287224               7.815759               0.000000
 MO|    169               0.289643               7.881578               0.000000
 MO|    170               0.295587               8.043339               0.000000
 MO|    171               0.305293               8.307450               0.000000
 MO|    172               0.307578               8.369629               0.000000
 MO|    173               0.308722               8.400749               0.000000
 MO|    174               0.309105               8.411171               0.000000
 MO|    175               0.318765               8.674033               0.000000
 MO|    176               0.322522               8.776271               0.000000
 MO|    177               0.328613               8.942016               0.000000
 MO|    178               0.331000               9.006966               0.000000
 MO|    179               0.338972               9.223902               0.000000
 MO|    180               0.340839               9.274707               0.000000
 MO|    181               0.341674               9.297409               0.000000
 MO|    182               0.343781               9.354758               0.000000
 MO|    183               0.360616               9.812866               0.000000
 MO|    184               0.365245               9.938834               0.000000
 MO|    185               0.366576               9.975046               0.000000
 MO|    186               0.375098              10.206937               0.000000
 MO|    187               0.379392              10.323770               0.000000
 MO|    188               0.391454              10.652003               0.000000
 MO|    189               0.396022              10.776317               0.000000
 MO|    190               0.399885              10.881433               0.000000
 MO|    191               0.406836              11.070564               0.000000
 MO|    192               0.410249              11.163440               0.000000
 MO| Sum:                                                             184.000000
 MO| E(Fermi):           -0.077105 a.u.         -2.098129 eV
 MO| Band gap:            0.095502 a.u.          2.598737 eV

    27 Broy./Diag. 0.40E+00    0.3     0.00000125     -1063.0427635979 -7.18E-06
  Decoupling Energy:                                              -0.0000129478

 MO| EIGENVALUES AND OCCUPATION NUMBERS AFTER SCF STEP 27
 MO|
 MO|  Index      Eigenvalue [a.u.]        Eigenvalue [eV]             Occupation
 MO|      1              -9.796353            -266.572333               2.000000
 MO|      2              -9.796333            -266.571790               2.000000
 MO|      3              -9.796326            -266.571581               2.000000
 MO|      4              -9.796315            -266.571292               2.000000
 MO|      5              -9.793921            -266.506154               2.000000
 MO|      6              -9.793898            -266.505527               2.000000
 MO|      7              -9.793820            -266.503394               2.000000
 MO|      8              -9.793785            -266.502454               2.000000
 MO|      9              -9.793756            -266.501658               2.000000
 MO|     10              -9.793602            -266.497473               2.000000
 MO|     11              -9.793471            -266.493907               2.000000
 MO|     12              -9.793465            -266.493723               2.000000
 MO|     13              -9.793463            -266.493674               2.000000
 MO|     14              -9.793376            -266.491326               2.000000
 MO|     15              -9.785935            -266.288824               2.000000
 MO|     16              -9.785933            -266.288767               2.000000
 MO|     17              -9.785924            -266.288535               2.000000
 MO|     18              -9.785920            -266.288430               2.000000
 MO|     19              -9.785411            -266.274575               2.000000
 MO|     20              -9.785394            -266.274114               2.000000
 MO|     21              -9.784182            -266.241138               2.000000
 MO|     22              -9.784182            -266.241124               2.000000
 MO|     23              -9.784155            -266.240384               2.000000
 MO|     24              -9.784151            -266.240287               2.000000
 MO|     25              -9.779778            -266.121289               2.000000
 MO|     26              -9.779776            -266.121248               2.000000
 MO|     27              -9.779692            -266.118940               2.000000
 MO|     28              -9.779689            -266.118882               2.000000
 MO|     29              -0.835252             -22.728357               2.000000
 MO|     30              -0.809951             -22.039880               2.000000
 MO|     31              -0.801309             -21.804735               2.000000
 MO|     32              -0.774906             -21.086262               2.000000
 MO|     33              -0.761477             -20.720848               2.000000
 MO|     34              -0.751048             -20.437057               2.000000
 MO|     35              -0.732763             -19.939506               2.000000
 MO|     36              -0.716397             -19.494150               2.000000
 MO|     37              -0.697627             -18.983402               2.000000
 MO|     38              -0.686198             -18.672407               2.000000
 MO|     39              -0.672810             -18.308089               2.000000
 MO|     40              -0.672080             -18.288215               2.000000
 MO|     41              -0.655297             -17.831544               2.000000
 MO|     42              -0.619134             -16.847484               2.000000
 MO|     43              -0.610388             -16.609508               2.000000
 MO|     44              -0.587794             -15.994675               2.000000
 MO|     45              -0.580061             -15.784268               2.000000
 MO|     46              -0.574732             -15.639260               2.000000
 MO|     47              -0.560722             -15.258025               2.000000
 MO|     48              -0.534567             -14.546302               2.000000
 MO|     49              -0.509317             -13.859214               2.000000
 MO|     50              -0.508400             -13.834262               2.000000
 MO|     51              -0.505971             -13.768165               2.000000
 MO|     52              -0.486327             -13.233636               2.000000
 MO|     53              -0.477656             -12.997676               2.000000
 MO|     54              -0.462546             -12.586522               2.000000
 MO|     55              -0.445827             -12.131578               2.000000
 MO|     56              -0.425990             -11.591786               2.000000
 MO|     57              -0.423027             -11.511164               2.000000
 MO|     58              -0.419521             -11.415739               2.000000
 MO|     59              -0.419014             -11.401950               2.000000
 MO|     60              -0.410309             -11.165066               2.000000
 MO|     61              -0.406892             -11.072108               2.000000
 MO|     62              -0.400461             -10.897109               2.000000
 MO|     63              -0.398383             -10.840540               2.000000
 MO|     64              -0.383471             -10.434764               2.000000
 MO|     65              -0.375611             -10.220886               2.000000
 MO|     66              -0.374609             -10.193617               2.000000
 MO|     67              -0.371405             -10.106455               2.000000
 MO|     68              -0.369109             -10.043975               2.000000
 MO|     69              -0.357568              -9.729909               2.000000
 MO|     70              -0.354460              -9.645355               2.000000
 MO|     71              -0.349284              -9.504495               2.000000
 MO|     72              -0.345452              -9.400215               2.000000
 MO|     73              -0.343868              -9.357138               2.000000
 MO|     74              -0.333658              -9.079295               2.000000
 MO|     75              -0.322274              -8.769517               2.000000
 MO|     76              -0.320117              -8.710825               2.000000
 MO|     77              -0.317036              -8.626993               2.000000
 MO|     78              -0.303341              -8.254335               2.000000
 MO|     79              -0.302488              -8.231122               2.000000
 MO|     80              -0.299743              -8.156430               2.000000
 MO|     81              -0.293765              -7.993748               2.000000
 MO|     82              -0.292562              -7.961014               2.000000
 MO|     83              -0.269165              -7.324364               2.000000
 MO|     84              -0.259097              -7.050401               2.000000
 MO|     85              -0.256493              -6.979535               2.000000
 MO|     86              -0.251493              -6.843461               2.000000
 MO|     87              -0.233859              -6.363615               2.000000
 MO|     88              -0.226702              -6.168870               2.000000
 MO|     89              -0.220750              -6.006912               2.000000
 MO|     90              -0.194023              -5.279628               2.000000
 MO|     91              -0.184004              -5.007003               2.000000
 MO|     92              -0.162284              -4.415959               2.000000
 MO|     93              -0.066782              -1.817222               0.000000
 MO|     94              -0.065554              -1.783811               0.000000
 MO|     95              -0.056610              -1.540442               0.000000
 MO|     96              -0.036705              -0.998802               0.000000
 MO|     97              -0.017064              -0.464336               0.000000
 MO|     98              -0.015962              -0.434355               0.000000
 MO|     99              -0.004182              -0.113807               0.000000
 MO|    100              -0.001554              -0.042286               0.000000
 MO|    101               0.005388               0.146614               0.000000
 MO|    102               0.008458               0.230147               0.000000
 MO|    103               0.011622               0.316248               0.000000
 MO|    104               0.013237               0.360203               0.000000
 MO|    105               0.016815               0.457550               0.000000
 MO|    106               0.027287               0.742520               0.000000
 MO|    107               0.031819               0.865831               0.000000
 MO|    108               0.043007               1.170274               0.000000
 MO|    109               0.045377               1.234769               0.000000
 MO|    110               0.050995               1.387646               0.000000
 MO|    111               0.056003               1.523918               0.000000
 MO|    112               0.056341               1.533117               0.000000
 MO|    113               0.060360               1.642487               0.000000
 MO|    114               0.066258               1.802981               0.000000
 MO|    115               0.067839               1.845999               0.000000
 MO|    116               0.070685               1.923442               0.000000
 MO|    117               0.076103               2.070878               0.000000
 MO|    118               0.077630               2.112409               0.000000
 MO|    119               0.084506               2.299513               0.000000
 MO|    120               0.095732               2.604997               0.000000
 MO|    121               0.096431               2.624020               0.000000
 MO|    122               0.097065               2.641279               0.000000
 MO|    123               0.100610               2.737736               0.000000
 MO|    124               0.109300               2.974215               0.000000
 MO|    125               0.112109               3.050648               0.000000
 MO|    126               0.113127               3.078340               0.000000
 MO|    127               0.119413               3.249399               0.000000
 MO|    128               0.120138               3.269133               0.000000
 MO|    129               0.128098               3.485713               0.000000
 MO|    130               0.133588               3.635101               0.000000
 MO|    131               0.143980               3.917887               0.000000
 MO|    132               0.144352               3.928015               0.000000
 MO|    133               0.158533               4.313913               0.000000
 MO|    134               0.159246               4.333301               0.000000
 MO|    135               0.160178               4.358655               0.000000
 MO|    136               0.162861               4.431663               0.000000
 MO|    137               0.165347               4.499316               0.000000
 MO|    138               0.166304               4.525375               0.000000
 MO|    139               0.166669               4.535288               0.000000
 MO|    140               0.168000               4.571520               0.000000
 MO|    141               0.174417               4.746139               0.000000
 MO|    142               0.176405               4.800223               0.000000
 MO|    143               0.186244               5.067971               0.000000
 MO|    144               0.187199               5.093938               0.000000
 MO|    145               0.199046               5.416331               0.000000
 MO|    146               0.203595               5.540113               0.000000
 MO|    147               0.204231               5.557401               0.000000
 MO|    148               0.204262               5.558244               0.000000
 MO|    149               0.210124               5.717769               0.000000
 MO|    150               0.210310               5.722819               0.000000
 MO|    151               0.212654               5.786620               0.000000
 MO|    152               0.219865               5.982827               0.000000
 MO|    153               0.220494               5.999953               0.000000
 MO|    154               0.221814               6.035853               0.000000
 MO|    155               0.234133               6.371071               0.000000
 MO|    156               0.239087               6.505901               0.000000
 MO|    157               0.239479               6.516554               0.000000
 MO|    158               0.242802               6.606979               0.000000
 MO|    159               0.244765               6.660389               0.000000
 MO|    160               0.245035               6.667754               0.000000
 MO|    161               0.246734               6.713981               0.000000
 MO|    162               0.249594               6.791790               0.000000
 MO|    163               0.268240               7.299195               0.000000
 MO|    164               0.268484               7.305820               0.000000
 MO|    165               0.270498               7.360627               0.000000
 MO|    166               0.274269               7.463240               0.000000
 MO|    167               0.284207               7.733679               0.000000
 MO|    168               0.287222               7.815706               0.000000
 MO|    169               0.289642               7.881568               0.000000
 MO|    170               0.295587               8.043321               0.000000
 MO|    171               0.305293               8.307442               0.000000
 MO|    172               0.307578               8.369617               0.000000
 MO|    173               0.308721               8.400728               0.000000
 MO|    174               0.309104               8.411158               0.000000
 MO|    175               0.318762               8.673961               0.000000
 MO|    176               0.322521               8.776251               0.000000
 MO|    177               0.328611               8.941963               0.000000
 MO|    178               0.330999               9.006945               0.000000
 MO|    179               0.338972               9.223887               0.000000
 MO|    180               0.340838               9.274686               0.000000
 MO|    181               0.341673               9.297385               0.000000
 MO|    182               0.343781               9.354752               0.000000
 MO|    183               0.360616               9.812855               0.000000
 MO|    184               0.365245               9.938823               0.000000
 MO|    185               0.366576               9.975032               0.000000
 MO|    186               0.375097              10.206919               0.000000
 MO|    187               0.379389              10.323700               0.000000
 MO|    188               0.391453              10.651975               0.000000
 MO|    189               0.396021              10.776290               0.000000
 MO|    190               0.399883              10.881376               0.000000
 MO|    191               0.406835              11.070543               0.000000
 MO|    192               0.410246              11.163373               0.000000
 MO| Sum:                                                             184.000000
 MO| E(Fermi):           -0.077105 a.u.         -2.098134 eV
 MO| Band gap:            0.095502 a.u.          2.598737 eV

    28 Broy./Diag. 0.40E+00    0.3     0.00000069     -1063.0427694170 -5.82E-06

  *** SCF run converged in    28 steps ***


  Electronic density on regular grids:       -139.1317082401       44.8682917599
  Core density on regular grids:               16.0000000000     -168.0000000000
  Hard and soft densities (Lebedev):         -370.2801666516     -325.4118707027
  Total Rho_soft + Rho1_hard - Rho1_soft     -184.0000041890
  Total charge density (r-space):            -168.0000041890
  Total Rho_soft + Rho0_soft (g-space):        -0.0000046104

  Overlap energy of the core charge distribution:               0.00005108619387
  Self energy of the core charge distribution:               -837.72448867534433
  Core Hamiltonian energy:                                   -186.95549115492275
  Hartree energy:                                             352.11945159939580
  Exchange-correlation energy:                                -63.53376288856911

  GAPW| Exc from hard and soft atomic rho1:                   -92.34572919088376
  GAPW| local Eh = 1 center integrals:                       -234.60280019288535
  Electronic entropic energy:                                  -0.00000000000000
  Fermi energy:                                                -0.07710500350851

  Total energy:                                             -1063.04276941701573

 MO| EIGENVALUES AND OCCUPATION NUMBERS
 MO|
 MO|  Index      Eigenvalue [a.u.]        Eigenvalue [eV]             Occupation
 MO|      1              -9.796353            -266.572333               2.000000
 MO|      2              -9.796333            -266.571790               2.000000
 MO|      3              -9.796326            -266.571581               2.000000
 MO|      4              -9.796315            -266.571292               2.000000
 MO|      5              -9.793921            -266.506154               2.000000
 MO|      6              -9.793898            -266.505527               2.000000
 MO|      7              -9.793820            -266.503394               2.000000
 MO|      8              -9.793785            -266.502454               2.000000
 MO|      9              -9.793756            -266.501658               2.000000
 MO|     10              -9.793602            -266.497473               2.000000
 MO|     11              -9.793471            -266.493907               2.000000
 MO|     12              -9.793465            -266.493723               2.000000
 MO|     13              -9.793463            -266.493674               2.000000
 MO|     14              -9.793376            -266.491326               2.000000
 MO|     15              -9.785935            -266.288824               2.000000
 MO|     16              -9.785933            -266.288767               2.000000
 MO|     17              -9.785924            -266.288535               2.000000
 MO|     18              -9.785920            -266.288430               2.000000
 MO|     19              -9.785411            -266.274575               2.000000
 MO|     20              -9.785394            -266.274114               2.000000
 MO|     21              -9.784182            -266.241138               2.000000
 MO|     22              -9.784182            -266.241124               2.000000
 MO|     23              -9.784155            -266.240384               2.000000
 MO|     24              -9.784151            -266.240287               2.000000
 MO|     25              -9.779778            -266.121289               2.000000
 MO|     26              -9.779776            -266.121248               2.000000
 MO|     27              -9.779692            -266.118940               2.000000
 MO|     28              -9.779689            -266.118882               2.000000
 MO|     29              -0.835252             -22.728357               2.000000
 MO|     30              -0.809951             -22.039880               2.000000
 MO|     31              -0.801309             -21.804735               2.000000
 MO|     32              -0.774906             -21.086262               2.000000
 MO|     33              -0.761477             -20.720848               2.000000
 MO|     34              -0.751048             -20.437057               2.000000
 MO|     35              -0.732763             -19.939506               2.000000
 MO|     36              -0.716397             -19.494150               2.000000
 MO|     37              -0.697627             -18.983402               2.000000
 MO|     38              -0.686198             -18.672407               2.000000
 MO|     39              -0.672810             -18.308089               2.000000
 MO|     40              -0.672080             -18.288215               2.000000
 MO|     41              -0.655297             -17.831544               2.000000
 MO|     42              -0.619134             -16.847484               2.000000
 MO|     43              -0.610388             -16.609508               2.000000
 MO|     44              -0.587794             -15.994675               2.000000
 MO|     45              -0.580061             -15.784268               2.000000
 MO|     46              -0.574732             -15.639260               2.000000
 MO|     47              -0.560722             -15.258025               2.000000
 MO|     48              -0.534567             -14.546302               2.000000
 MO|     49              -0.509317             -13.859214               2.000000
 MO|     50              -0.508400             -13.834262               2.000000
 MO|     51              -0.505971             -13.768165               2.000000
 MO|     52              -0.486327             -13.233636               2.000000
 MO|     53              -0.477656             -12.997676               2.000000
 MO|     54              -0.462546             -12.586522               2.000000
 MO|     55              -0.445827             -12.131578               2.000000
 MO|     56              -0.425990             -11.591786               2.000000
 MO|     57              -0.423027             -11.511164               2.000000
 MO|     58              -0.419521             -11.415739               2.000000
 MO|     59              -0.419014             -11.401950               2.000000
 MO|     60              -0.410309             -11.165066               2.000000
 MO|     61              -0.406892             -11.072108               2.000000
 MO|     62              -0.400461             -10.897109               2.000000
 MO|     63              -0.398383             -10.840540               2.000000
 MO|     64              -0.383471             -10.434764               2.000000
 MO|     65              -0.375611             -10.220886               2.000000
 MO|     66              -0.374609             -10.193617               2.000000
 MO|     67              -0.371405             -10.106455               2.000000
 MO|     68              -0.369109             -10.043975               2.000000
 MO|     69              -0.357568              -9.729909               2.000000
 MO|     70              -0.354460              -9.645355               2.000000
 MO|     71              -0.349284              -9.504495               2.000000
 MO|     72              -0.345452              -9.400215               2.000000
 MO|     73              -0.343868              -9.357138               2.000000
 MO|     74              -0.333658              -9.079295               2.000000
 MO|     75              -0.322274              -8.769517               2.000000
 MO|     76              -0.320117              -8.710825               2.000000
 MO|     77              -0.317036              -8.626993               2.000000
 MO|     78              -0.303341              -8.254335               2.000000
 MO|     79              -0.302488              -8.231122               2.000000
 MO|     80              -0.299743              -8.156430               2.000000
 MO|     81              -0.293765              -7.993748               2.000000
 MO|     82              -0.292562              -7.961014               2.000000
 MO|     83              -0.269165              -7.324364               2.000000
 MO|     84              -0.259097              -7.050401               2.000000
 MO|     85              -0.256493              -6.979535               2.000000
 MO|     86              -0.251493              -6.843461               2.000000
 MO|     87              -0.233859              -6.363615               2.000000
 MO|     88              -0.226702              -6.168870               2.000000
 MO|     89              -0.220750              -6.006912               2.000000
 MO|     90              -0.194023              -5.279628               2.000000
 MO|     91              -0.184004              -5.007003               2.000000
 MO|     92              -0.162284              -4.415959               2.000000
 MO|     93              -0.066782              -1.817222               0.000000
 MO|     94              -0.065554              -1.783811               0.000000
 MO|     95              -0.056610              -1.540442               0.000000
 MO|     96              -0.036705              -0.998802               0.000000
 MO|     97              -0.017064              -0.464336               0.000000
 MO|     98              -0.015962              -0.434355               0.000000
 MO|     99              -0.004182              -0.113807               0.000000
 MO|    100              -0.001554              -0.042286               0.000000
 MO|    101               0.005388               0.146614               0.000000
 MO|    102               0.008458               0.230147               0.000000
 MO|    103               0.011622               0.316248               0.000000
 MO|    104               0.013237               0.360203               0.000000
 MO|    105               0.016815               0.457550               0.000000
 MO|    106               0.027287               0.742520               0.000000
 MO|    107               0.031819               0.865831               0.000000
 MO|    108               0.043007               1.170274               0.000000
 MO|    109               0.045377               1.234769               0.000000
 MO|    110               0.050995               1.387646               0.000000
 MO|    111               0.056003               1.523918               0.000000
 MO|    112               0.056341               1.533117               0.000000
 MO|    113               0.060360               1.642487               0.000000
 MO|    114               0.066258               1.802981               0.000000
 MO|    115               0.067839               1.845999               0.000000
 MO|    116               0.070685               1.923442               0.000000
 MO|    117               0.076103               2.070878               0.000000
 MO|    118               0.077630               2.112409               0.000000
 MO|    119               0.084506               2.299513               0.000000
 MO|    120               0.095732               2.604997               0.000000
 MO|    121               0.096431               2.624020               0.000000
 MO|    122               0.097065               2.641279               0.000000
 MO|    123               0.100610               2.737736               0.000000
 MO|    124               0.109300               2.974215               0.000000
 MO|    125               0.112109               3.050648               0.000000
 MO|    126               0.113127               3.078340               0.000000
 MO|    127               0.119413               3.249399               0.000000
 MO|    128               0.120138               3.269133               0.000000
 MO|    129               0.128098               3.485713               0.000000
 MO|    130               0.133588               3.635101               0.000000
 MO|    131               0.143980               3.917887               0.000000
 MO|    132               0.144352               3.928015               0.000000
 MO|    133               0.158533               4.313913               0.000000
 MO|    134               0.159246               4.333301               0.000000
 MO|    135               0.160178               4.358655               0.000000
 MO|    136               0.162861               4.431663               0.000000
 MO|    137               0.165347               4.499316               0.000000
 MO|    138               0.166304               4.525375               0.000000
 MO|    139               0.166669               4.535288               0.000000
 MO|    140               0.168000               4.571520               0.000000
 MO|    141               0.174417               4.746139               0.000000
 MO|    142               0.176405               4.800223               0.000000
 MO|    143               0.186244               5.067971               0.000000
 MO|    144               0.187199               5.093938               0.000000
 MO|    145               0.199046               5.416331               0.000000
 MO|    146               0.203595               5.540113               0.000000
 MO|    147               0.204231               5.557401               0.000000
 MO|    148               0.204262               5.558244               0.000000
 MO|    149               0.210124               5.717769               0.000000
 MO|    150               0.210310               5.722819               0.000000
 MO|    151               0.212654               5.786620               0.000000
 MO|    152               0.219865               5.982827               0.000000
 MO|    153               0.220494               5.999953               0.000000
 MO|    154               0.221814               6.035853               0.000000
 MO|    155               0.234133               6.371071               0.000000
 MO|    156               0.239087               6.505901               0.000000
 MO|    157               0.239479               6.516554               0.000000
 MO|    158               0.242802               6.606979               0.000000
 MO|    159               0.244765               6.660389               0.000000
 MO|    160               0.245035               6.667754               0.000000
 MO|    161               0.246734               6.713981               0.000000
 MO|    162               0.249594               6.791790               0.000000
 MO|    163               0.268240               7.299195               0.000000
 MO|    164               0.268484               7.305820               0.000000
 MO|    165               0.270498               7.360627               0.000000
 MO|    166               0.274269               7.463240               0.000000
 MO|    167               0.284207               7.733679               0.000000
 MO|    168               0.287222               7.815706               0.000000
 MO|    169               0.289642               7.881568               0.000000
 MO|    170               0.295587               8.043321               0.000000
 MO|    171               0.305293               8.307442               0.000000
 MO|    172               0.307578               8.369617               0.000000
 MO|    173               0.308721               8.400728               0.000000
 MO|    174               0.309104               8.411158               0.000000
 MO|    175               0.318762               8.673961               0.000000
 MO|    176               0.322521               8.776251               0.000000
 MO|    177               0.328611               8.941963               0.000000
 MO|    178               0.330999               9.006945               0.000000
 MO|    179               0.338972               9.223887               0.000000
 MO|    180               0.340838               9.274686               0.000000
 MO|    181               0.341673               9.297385               0.000000
 MO|    182               0.343781               9.354752               0.000000
 MO|    183               0.360616               9.812855               0.000000
 MO|    184               0.365245               9.938823               0.000000
 MO|    185               0.366576               9.975032               0.000000
 MO|    186               0.375097              10.206919               0.000000
 MO|    187               0.379389              10.323700               0.000000
 MO|    188               0.391453              10.651975               0.000000
 MO|    189               0.396021              10.776290               0.000000
 MO|    190               0.399883              10.881376               0.000000
 MO|    191               0.406835              11.070543               0.000000
 MO|    192               0.410246              11.163373               0.000000
 MO| Sum:                                                             184.000000
 MO| E(Fermi):           -0.077105 a.u.         -2.098134 eV
 MO| Band gap:            0.095502 a.u.          2.598737 eV


 !-----------------------------------------------------------------------------!
                     Mulliken Population Analysis

 #  Atom  Element  Kind  Atomic population                           Net charge
       1     H        1          0.960654                              0.039346
       2     H        1          0.960654                              0.039346
       3     H        1          0.895474                              0.104526
       4     H        1          0.895474                              0.104526
       5     C        2          6.500031                             -0.500031
       6     C        2          6.092747                             -0.092747
       7     C        2          6.092747                             -0.092747
       8     H        1          0.949798                              0.050202
       9     H        1          0.949798                              0.050202
      10     C        2          5.790274                              0.209726
      11     C        2          5.790274                              0.209726
      12     C        2          6.054898                             -0.054898
      13     C        2          6.054898                             -0.054898
      14     C        2          6.078904                             -0.078904
      15     C        2          6.078904                             -0.078904
      16     C        2          5.990630                              0.009370
      17     C        2          5.990630                              0.009370
      18     H        1          1.008503                             -0.008503
      19     H        1          1.008503                             -0.008503
      20     C        2          5.923582                              0.076418
      21     C        2          5.923582                              0.076418
      22     C        2          6.009041                             -0.009041
      23     C        2          6.009041                             -0.009041
      24     C        2          5.923582                              0.076418
      25     C        2          5.923582                              0.076418
      26     H        1          1.008503                             -0.008503
      27     H        1          1.008503                             -0.008503
      28     C        2          5.990630                              0.009370
      29     C        2          5.990630                              0.009370
      30     C        2          6.078904                             -0.078904
      31     C        2          6.078904                             -0.078904
      32     C        2          6.054898                             -0.054898
      33     C        2          6.054898                             -0.054898
      34     C        2          5.790274                              0.209726
      35     C        2          5.790274                              0.209726
      36     H        1          0.949798                              0.050202
      37     H        1          0.949798                              0.050202
      38     C        2          6.092747                             -0.092747
      39     C        2          6.092747                             -0.092747
      40     C        2          6.500031                             -0.500031
      41     H        1          0.895474                              0.104526
      42     H        1          0.895474                              0.104526
      43     H        1          0.960654                              0.039346
      44     H        1          0.960654                              0.039346
 # Total charge                            184.000000                 -0.000000

 !-----------------------------------------------------------------------------!

 !-----------------------------------------------------------------------------!
                           Hirshfeld Charges

  #Atom  Element  Kind  Ref Charge     Population                    Net charge
      1       H      1       1.000          0.510                         0.490
      2       H      1       1.000          0.510                         0.490
      3       H      1       1.000          0.515                         0.485
      4       H      1       1.000          0.515                         0.485
      5       C      2       6.000          6.861                        -0.861
      6       C      2       6.000          6.514                        -0.514
      7       C      2       6.000          6.514                        -0.514
      8       H      1       1.000          0.512                         0.488
      9       H      1       1.000          0.512                         0.488
     10       C      2       6.000          6.003                        -0.003
     11       C      2       6.000          6.003                        -0.003
     12       C      2       6.000          6.488                        -0.488
     13       C      2       6.000          6.488                        -0.488
     14       C      2       6.000          6.499                        -0.499
     15       C      2       6.000          6.499                        -0.499
     16       C      2       6.000          6.003                        -0.003
     17       C      2       6.000          6.003                        -0.003
     18       H      1       1.000          0.515                         0.485
     19       H      1       1.000          0.515                         0.485
     20       C      2       6.000          5.991                         0.009
     21       C      2       6.000          5.991                         0.009
     22       C      2       6.000          6.006                        -0.006
     23       C      2       6.000          6.006                        -0.006
     24       C      2       6.000          5.991                         0.009
     25       C      2       6.000          5.991                         0.009
     26       H      1       1.000          0.515                         0.485
     27       H      1       1.000          0.515                         0.485
     28       C      2       6.000          6.003                        -0.003
     29       C      2       6.000          6.003                        -0.003
     30       C      2       6.000          6.499                        -0.499
     31       C      2       6.000          6.499                        -0.499
     32       C      2       6.000          6.488                        -0.488
     33       C      2       6.000          6.488                        -0.488
     34       C      2       6.000          6.003                        -0.003
     35       C      2       6.000          6.003                        -0.003
     36       H      1       1.000          0.512                         0.488
     37       H      1       1.000          0.512                         0.488
     38       C      2       6.000          6.514                        -0.514
     39       C      2       6.000          6.514                        -0.514
     40       C      2       6.000          6.861                        -0.861
     41       H      1       1.000          0.515                         0.485
     42       H      1       1.000          0.515                         0.485
     43       H      1       1.000          0.510                         0.490
     44       H      1       1.000          0.510                         0.490

  Total Charge                                                            0.073
 !-----------------------------------------------------------------------------!
  
 -------------------------------------------------------------------------------
 -                                                                             -
 -                          BANDSTRUCTURE CALCULATION                          -
 -                                                                             -
 -------------------------------------------------------------------------------
  
 Number of occupied molecular orbitals (MOs) = Number of occupied bands       92
 Number of unoccupied (= virtual) MOs = Number of unoccupied bands           256
 Number of Gaussian basis functions for MOs                                  348
 K-point mesh for the density of states (DOS) and the self-energy      1   1   1
  
 -------------------------------------------------------------------------------
 -                                                                             -
 -                                GW CALCULATION                               -
 -                                                                             -
 -------------------------------------------------------------------------------
  
 Input: Number of time/freq. points                                           15
 Input: ω_max for fitting Σ(iω) (eV)                                        10.0
 Input: Filter threshold for sparse tensor operations                    1.0E-08
 Input: Apply Hedin shift                                                      T
 Input: Available memory per MPI process                                  6.0 GB
  
 Number of auxiliary Gaussian basis functions for χ, ε, W                    340
 Cutoff radius for the truncated Coulomb operator in Σ^x:               2645.9 Å
 Cutoff radius for the truncated Coulomb operator in RI metric:            7.0 Å
 Regularization parameter of RI                                          0.0E+00
 Regularization parameter of minimax grids                               0.0E+00
 Lattice sum size for V(k):                                                    3
  
 K-point mesh 1 for χ, ε, W                                            1   1   1
 K-point mesh 2 for χ, ε, W (for k-point extrapolation of W)           1   1   1
 Approximate the k-point extrapolation                                         F
 Group size for tensor operations                                             48
  Decoupling Energy:                                              -0.0000129405
 
 Computed 3-center integrals (µν|P), execution time                        0.2 s
 Percentage of non-zero (µν|P)                                         100.000 %
 Max. distance between µ,ν in non-zero (µν|P)                             11.4 A
 Required memory if storing all 3-center integrals (µν|P)                   0 GB
 
 Number of i and j atoms in M_λνP(τ), N_νλQ(τ):                              208
 Number of inner loop atoms for µ in M_λνP = sum_µ (µν|P) G_µλ                44
 
 SCF direct band gap (eV)                                                   2.60
 Max. SCF eigval diff. (eV)                                               357.61
 E-Range for minimax grid                                                 137.61
 Number of Padé parameters for analytic continuation:                          5
 
 Computed χ(iτ,k=0) for time point            1 / 15, Execution time       0.2 s
 Computed χ(iτ,k=0) for time point            2 / 15, Execution time       0.1 s
 Computed χ(iτ,k=0) for time point            3 / 15, Execution time       0.1 s
 Computed χ(iτ,k=0) for time point            4 / 15, Execution time       0.2 s
 Computed χ(iτ,k=0) for time point            5 / 15, Execution time       0.2 s
 Computed χ(iτ,k=0) for time point            6 / 15, Execution time       0.1 s
 Computed χ(iτ,k=0) for time point            7 / 15, Execution time       0.1 s
 Computed χ(iτ,k=0) for time point            8 / 15, Execution time       0.1 s
 Computed χ(iτ,k=0) for time point            9 / 15, Execution time       0.1 s
 Computed χ(iτ,k=0) for time point           10 / 15, Execution time       0.1 s
 Computed χ(iτ,k=0) for time point           11 / 15, Execution time       0.1 s
 Computed χ(iτ,k=0) for time point           12 / 15, Execution time       0.1 s
 Computed χ(iτ,k=0) for time point           13 / 15, Execution time       0.1 s
 Computed χ(iτ,k=0) for time point           14 / 15, Execution time       0.1 s
 Computed χ(iτ,k=0) for time point           15 / 15, Execution time       0.1 s
 
 Computed W(iτ,k) for k-point batch           1 /  1, Execution time       0.5 s
 
 Computed Σ^x(k=0),                                   Execution time       0.2 s
 
 Computed Σ^c(iτ,k=0) for time point          1 / 15, Execution time       0.2 s
 Computed Σ^c(iτ,k=0) for time point          2 / 15, Execution time       0.2 s
 Computed Σ^c(iτ,k=0) for time point          3 / 15, Execution time       0.2 s
 Computed Σ^c(iτ,k=0) for time point          4 / 15, Execution time       0.2 s
 Computed Σ^c(iτ,k=0) for time point          5 / 15, Execution time       0.2 s
 Computed Σ^c(iτ,k=0) for time point          6 / 15, Execution time       0.2 s
 Computed Σ^c(iτ,k=0) for time point          7 / 15, Execution time       0.3 s
 Computed Σ^c(iτ,k=0) for time point          8 / 15, Execution time       0.3 s
 Computed Σ^c(iτ,k=0) for time point          9 / 15, Execution time       0.2 s
 Computed Σ^c(iτ,k=0) for time point         10 / 15, Execution time       0.2 s
 Computed Σ^c(iτ,k=0) for time point         11 / 15, Execution time       0.2 s
 Computed Σ^c(iτ,k=0) for time point         12 / 15, Execution time       0.3 s
 Computed Σ^c(iτ,k=0) for time point         13 / 15, Execution time       0.2 s
 Computed Σ^c(iτ,k=0) for time point         14 / 15, Execution time       0.2 s
 Computed Σ^c(iτ,k=0) for time point         15 / 15, Execution time       0.2 s
 
 Sparsity of Σ^c(iτ,k=0): Percentage of skipped atom pairs:                0.0 %
 Sparsity of χ(iτ,k=0): Percentage of skipped atom pairs:                  0.0 %

 
 SCF valence band maximum (eV):                                           -4.416
 SCF conduction band minimum (eV):                                        -1.817
 SCF indirect band gap (eV):                                               2.599
 SCF direct band gap (eV):                                                 2.599
 
 G0W0 valence band maximum (eV):                                          -3.860
 G0W0 conduction band minimum (eV):                                        2.056
 G0W0 indirect band gap (eV):                                              5.917
 G0W0 direct band gap (eV):                                                5.917
 
 Hartree-Fock with SCF orbitals valence band maximum (eV):                -4.361
 Hartree-Fock with SCF orbitals conduction band minimum (eV)               3.137
 Hartree-Fock with SCF orbitals indirect band gap (eV):                    7.498
 Hartree-Fock with SCF orbitals direct band gap (eV):                      7.498

 ENERGY| Total FORCE_EVAL ( QS ) energy [hartree]          -1063.042769417015734

 -------------------------------------------------------------------------------
 -                                                                             -
 -                                DBCSR STATISTICS                             -
 -                                                                             -
 -------------------------------------------------------------------------------
 COUNTER                                    TOTAL       BLAS       SMM       ACC
 flops     6 x     6 x    32             52641792     100.0%      0.0%      0.0%     
 flops     9 x     6 x    32            130056192     100.0%      0.0%      0.0%     
 flops     6 x     9 x    32            130056192     100.0%      0.0%      0.0%     
 flops     9 x     9 x    32            353590272     100.0%      0.0%      0.0%     
 flops inhomo. stacks                           0       0.0%      0.0%      0.0%
 flops total                       666.344448E+06     100.0%      0.0%      0.0%
 flops max/rank                     16.644096E+06     100.0%      0.0%      0.0%
 matmuls inhomo. stacks                         0       0.0%      0.0%      0.0%
 matmuls total                             166320     100.0%      0.0%      0.0%
 number of processed stacks                 79128     100.0%      0.0%      0.0%
 average stack size                                     2.1       0.0       0.0
 marketing flops                   623.927808E+06
 -------------------------------------------------------------------------------
 # multiplications                             28
 max memory usage/rank              19.639820E+09
 # max total images/rank                        3
 # max 3D layers                                1
 # MPI messages exchanged                   26880
 MPI messages size (bytes):
  total size                       209.534976E+06
  min size                           0.000000E+00
  max size                          23.040000E+03
  average size                       7.795200E+03
 MPI breakdown and total messages size (bytes):
             size <=      128               13440                        0
       128 < size <=     8192                6048                 44900352
      8192 < size <=    32768                7392                164634624
     32768 < size <=   131072                   0                        0
    131072 < size <=  4194304                   0                        0
   4194304 < size <= 16777216                   0                        0
  16777216 < size                               0                        0
 -------------------------------------------------------------------------------

 *** WARNING in dbcsr_mm.F:301 :: Using a non-square number of MPI ranks ***
 *** might lead to poor performance. Used ranks: 48 Suggested: 49 100    ***

 -------------------------------------------------------------------------------
 -                                                                             -
 -                      DBCSR MESSAGE PASSING PERFORMANCE                      -
 -                                                                             -
 -------------------------------------------------------------------------------
 ROUTINE             CALLS      AVE VOLUME [Bytes]
 MP_Bcast                5                     12.
 MP_Allreduce          167                     11.
 MP_Alltoall          2601                  15570.
 MP_ISend             1344                   4255.
 MP_IRecv             1344                   3289.
 -------------------------------------------------------------------------------

 -------------------------------------------------------------------------------
 -                                                                             -
 -                                DBM STATISTICS                               -
 -                                                                             -
 -------------------------------------------------------------------------------
    M  x    N  x    K                                          COUNT     PERCENT
    ?  x    ?  x    ?                                        9582414      50.03%
   ??  x    ?  x    ?                                        4870562      25.43%
    ?  x    ?  x   ??                                        2410961      12.59%
   ??  x   ??  x   ??                                         999189       5.22%
    ?  x   ??  x   ??                                         568980       2.97%
   ??  x   ??  x    ?                                         290906       1.52%
   ??  x    ?  x   ??                                         277189       1.45%
    ?  x   ??  x    ?                                         154563       0.81%
 -------------------------------------------------------------------------------

 -------------------------------------------------------------------------------
 -                                                                             -
 -                                GRID STATISTICS                              -
 -                                                                             -
 -------------------------------------------------------------------------------
 LP    KERNEL             BACKEND                              COUNT     PERCENT
 2     collocate ortho    CPU                                  12151      46.68%
 2     integrate ortho    CPU                                  12151      46.68%
 2     collocate general  CPU                                    812       3.12%
 2     integrate general  CPU                                    812       3.12%
 0     collocate general  CPU                                     60       0.23%
 0     integrate general  CPU                                     44       0.17%
 -------------------------------------------------------------------------------

 -------------------------------------------------------------------------------
 -                                                                             -
 -                          OFFLOAD MEMPOOL STATISTICS                         -
 -                                                                             -
 -------------------------------------------------------------------------------
 Memory consumption                Number of allocations  Used [MiB]  Size [MiB]
 Device                                                7          46          46
 Host                                                245         107         221
 -------------------------------------------------------------------------------

 MEMORY| Estimated peak process memory [MiB]                                 989

 -------------------------------------------------------------------------------
 ----                             MULTIGRID INFO                            ----
 -------------------------------------------------------------------------------
 count for grid        1:         106650          cutoff [a.u.]          300.00
 count for grid        2:          41087          cutoff [a.u.]          100.00
 count for grid        3:          64926          cutoff [a.u.]           33.33
 count for grid        4:          46106          cutoff [a.u.]           11.11
 total gridlevel count  :         258769

 -------------------------------------------------------------------------------
 -                                                                             -
 -                         MESSAGE PASSING PERFORMANCE                         -
 -                                                                             -
 -------------------------------------------------------------------------------

 ROUTINE             CALLS      AVE VOLUME [Bytes]
 MP_Group             1390
 MP_Bcast             8875                   2750.
 MP_Allreduce        33558                    610.
 MP_Sync              1786
 MP_Alltoall          1508                6965852.
 MP_SendRecv          2726                 108360.
 MP_ISendRecv         2726                 108360.
 MP_Wait              7238
 MP_comm_split         857
 MP_ISend            24045                 119268.
 MP_IRecv            23859                 120273.
 -------------------------------------------------------------------------------


 -------------------------------------------------------------------------------
 -                                                                             -
 -                           R E F E R E N C E S                               -
 -                                                                             -
 -------------------------------------------------------------------------------
 
 CP2K version 2026.1 (Development Version), the CP2K developers group (2026).
 CP2K is freely available from https://www.cp2k.org/ .
 
 M. Graml, K. Zollner, D. Hernangómez-Pérez, P. E. Faria Junior, J. Wilhelm.
 J. Chem. Theory Comput. 20, 2202-2208 (2024).
 Low-scaling GW algorithm applied to twisted transition-metal dichalcogenide 
 heterobilayers.
 https://doi.org/10.1021/acs.jctc.3c01230

 T. D. Kuehne, M. Iannuzzi, M. Del Ben, V. V. Rybkin, P. Seewald, F. Stein, T. 
 Laino, R. Z. Khaliullin, O. Schuett, F. Schiffmann, D. Golze, J. Wilhelm, S. 
 Chulkov, M. H. Bani-Hashemian, V. Weber, U. Borstnik, M. Taillefumier, A. S. 
 Jakobovits, A. Lazzaro, H. Pabst, T. Mueller, R. Schade, M. Guidon, S. 
 Andermatt, N. Holmberg, G. K. Schenter, A. Hehn, A. Bussy, F. Belleflamme, G. 
 Tabacchi, A. Gloess, M. Lass, I. Bethune, C. J. Mundy, C. Plessl, M. Watkins, 
 J. VandeVondele, M. Krack, J. Hutter.
 J. Chem. Phys. 152, 194103 (2020).
 CP2K: An electronic structure and molecular dynamics software package - 
 Quickstep: Efficient and accurate electronic structure calculations.
 https://doi.org/10.1063/5.0007045

 O. Schuett, P. Messmer, J. Hutter, J. VandeVondele.
 Electronic Structure Calculations on Graphics Processing Units, 173-190 (2016).
 GPU-Accelerated Sparse Matrix-Matrix Multiplication for Linear Scaling Density 
 Functional Theory.
 https://doi.org/10.1002/9781118670712.ch8

 A. Heinecke, G. Henry, M. Hutchinson, H. Pabst.
 Proceedings of Intl. Supercomputing Conference, 981-991 (2016).
 LIBXSMM: Accelerating Small Matrix Multiplications by Runtime Code Generation.
 https://doi.org/10.1109/SC.2016.83

 J. Hutter, M. Iannuzzi, F. Schiffmann, J. VandeVondele.
 WIREs Comput Mol Sci. 4, 15-25 (2014).
 CP2K: atomistic simulations of condensed matter systems.
 https://doi.org/10.1002/wcms.1159

 U. Borstnik, J. VandeVondele, V. Weber, J. Hutter.
 Parallel Comput. 40, 47-58 (2014).
 Sparse matrix multiplication: The distributed block-compressed sparse row 
 library.
 https://doi.org/10.1016/j.parco.2014.03.012

 A. Marek, V. Blum, R. Johanni, V. Havu, B. Lang, T. Auckenthaler, A. Heinecke, 
 H. Bungartz, H. Lederer.
 J. Phys. Condens. Matter 26, 213201 (2014).
 The ELPA library: scalable parallel eigenvalue solutions for electronic 
 structure theory and computational science.
 https://doi.org/10.1088/0953-8984/26/21/213201

 J. VandeVondele, J. Hutter.
 J. Chem. Phys. 127, 114105 (2007).
 Gaussian basis sets for accurate calculations on molecular systems in gas and 
 condensed phases.
 https://doi.org/10.1063/1.2770708

 M. Frigo, S. G. Johnson.
 Proc. IEEE 93, 216-231 (2005).
 The design and implementation of FFTW3.
 https://doi.org/10.1109/JPROC.2004.840301

 M. Krack, M. Parrinello.
 Phys. Chem. Chem. Phys. 2, 2105-2112 (2000).
 All-electron ab-initio molecular dynamics.
 https://doi.org/10.1039/b001167n

 G. Lippert, J. Hutter, M. Parrinello.
 Theor. Chem. Acc. 103, 124-140 (1999).
 The Gaussian and augmented-plane-wave density functional method for ab initio 
 molecular dynamics simulations.
 https://doi.org/10.1007/s002140050523

 J. P. Perdew, K. Burke, M. Ernzerhof.
 Phys. Rev. Lett. 77, 3865-3868 (1996).
 Generalized gradient approximation made simple.
 https://doi.org/10.1103/PhysRevLett.77.3865

 P. E. Blöchl.
 J. Chem. Phys. 103, 7422-7428 (1995).
 Electrostatic decoupling of periodic images of plane‐wave‐expanded 
 densities and derived atomic point charges.
 https://doi.org/10.1063/1.470314


 -------------------------------------------------------------------------------
 -                                                                             -
 -                                T I M I N G                                  -
 -                                                                             -
 -------------------------------------------------------------------------------
 SUBROUTINE                       CALLS  ASD         SELF TIME        TOTAL TIME
                                MAXIMUM       AVERAGE  MAXIMUM  AVERAGE  MAXIMUM
 CP2K                                 1  1.0    0.050    0.051   16.058   16.059
 qs_energies                          1  2.0    0.011    0.011   15.829   15.833
 scf_env_do_scf                       1  3.0    0.000    0.001    8.158    8.159
 scf_env_do_scf_inner_loop           28  4.0    0.002    0.002    8.158    8.158
 qs_energies_properties               1  3.0    0.002    0.003    6.892    6.896
 post_scf_bandstructure               1  4.0    0.004    0.004    6.890    6.894
 gw                                   1  5.0    0.004    0.006    6.835    6.837
 gw_calc_large_cell_Gamma             1  6.0    0.000    0.000    6.458    6.460
 qs_ks_build_kohn_sham_matrix        29  7.0    0.007    0.008    5.308    5.309
 qs_ks_update_qs_env                 28  5.0    0.000    0.000    5.220    5.221
 rebuild_ks_matrix                   28  6.0    0.000    0.000    5.217    5.218
 fft_wrap_pw1pw2                    543 10.1    0.006    0.008    3.535    3.675
 dbt_total                          354  9.0    0.003    0.004    3.589    3.589
 fft_wrap_pw1pw2_300                369 11.4    0.213    0.252    3.343    3.515
 get_Sigma_c                          1  7.0    0.000    0.001    3.451    3.453
 dbt_contract                       123  9.9    0.005    0.005    3.149    3.149
 fft3d_ps                           543 12.1    1.240    1.387    2.786    2.961
 dbt_tas_multiply                   246 12.4    0.000    0.000    2.934    2.935
 dbt_tas_total                      246 13.4    0.017    0.023    2.932    2.932
 qs_vxc_create                       29  8.0    0.002    0.003    2.586    2.632
 xc_vxc_pw_create                    28  9.0    0.034    0.044    2.584    2.630
 contract_to_Sigma                   31  8.0    0.001    0.001    2.362    2.362
 get_mat_chi_Gamma_tau                1  7.0    0.000    0.001    2.195    2.196
 build_3c_integrals                  85  9.5    1.358    1.693    1.751    2.052
 compute_3c_integrals                77  8.6    0.001    0.001    1.969    1.970
 qs_rho_update_rho_low               29  5.0    0.000    0.000    1.914    1.915
 calculate_rho_elec                  29  6.0    0.023    0.025    1.872    1.872
 xc_pw_derive                       168 11.0    0.001    0.001    1.781    1.870
 dbt_tas_dbm                        246 14.4    0.000    0.001    1.689    1.689
 dbm_multiply                       246 16.4    1.525    1.615    1.525    1.615
 mp_alltoall_z22v                   543 14.1    1.322    1.454    1.322    1.454
 xc_rho_set_and_dset_create          28 10.0    0.035    0.041    1.354    1.408
 xc_pw_divergence                    28 10.0    0.000    0.001    1.149    1.224
 density_rs2pw                       29  7.0    0.001    0.001    1.049    1.161
 compute_3c_and_contract_W           16  8.1    0.000    0.000    1.016    1.016
 sum_up_and_integrate                29  8.0    0.000    0.000    1.004    1.007
 integrate_v_rspace                  29  9.0    0.001    0.001    0.994    0.998
 x_to_yz                            284 13.3    0.117    0.167    0.902    0.972
 mp_sync                           1786 12.2    0.607    0.943    0.607    0.943
 potential_pw2rs                     29 10.0    0.002    0.002    0.858    0.861
 grid_collocate_task_list            29  7.0    0.768    0.851    0.768    0.851
 yz_to_x                            259 12.9    0.097    0.119    0.635    0.758
 dbt_tas_mm_2                        92 15.2    0.000    0.000    0.756    0.756
 gspace_mixing                       27  5.0    0.021    0.023    0.731    0.732
 transfer_rs2pw                     147  8.4    0.002    0.002    0.627    0.730
 transfer_pw2rs                     146 10.6    0.001    0.001    0.711    0.728
 mp_waitany                        2240 11.5    0.586    0.695    0.586    0.695
 prepare_gapw_den                    29  8.0    0.000    0.000    0.586    0.617
 G_times_3c                          30  8.0    0.001    0.001    0.603    0.604
 qs_energies_init_hamiltonians        1  3.0    0.009    0.009    0.603    0.603
 put_rho0_on_grid                    29  9.0    0.028    0.034    0.570    0.601
 build_core_hamiltonian_matrix        1  4.0    0.005    0.006    0.552    0.552
 transfer_rs2pw_300                  60  9.9    0.177    0.187    0.437    0.537
 overlap_condnum                      1  5.0    0.003    0.003    0.528    0.529
 transfer_pw2rs_300                  59 11.0    0.193    0.220    0.477    0.511
 arnoldi_conjugate_gradient           9  6.0    0.013    0.019    0.492    0.492
 get_W_MIC                            1  7.0    0.000    0.000    0.489    0.489
 compute_W_MIC                        1  8.0    0.000    0.000    0.489    0.489
 mp_sum_d                         10312  6.8    0.319    0.488    0.319    0.488
 broyden_mixing                      27  6.0    0.446    0.461    0.463    0.485
 dbt_tas_estimate_result_nze        123 12.9    0.053    0.055    0.474    0.474
 compute_fm_W_MIC_freq_j             15  9.0    0.001    0.001    0.428    0.428
 convert_to_new_pgrid               738 14.4    0.027    0.048    0.416    0.426
 qs_ks_ddapc                         29  8.0    0.001    0.001    0.382    0.417
 xc_functional_eval                  84 10.5    0.000    0.001    0.372    0.416
 pbe_lda_eval                        84 11.5    0.371    0.415    0.371    0.415
 dbt_copy                           231 10.1    0.002    0.002    0.391    0.414
 dbm_redistribute                   186 14.7    0.380    0.397    0.380    0.397
 create_and_init_bs_env_for_gw        1  6.0    0.001    0.001    0.373    0.375
 qs_scf_new_mos                      28  5.0    0.000    0.000    0.351    0.352
 dbt_tas_mm_3T                       62 15.5    0.000    0.000    0.323    0.339
 integrate_vhg0_rspace               29  8.0    0.009    0.013    0.335    0.338
 dbt_tas_mm_1N                       60 15.5    0.000    0.000    0.318    0.335
 dbcsr_sym_matrix_vector_mult      6257  7.0    0.030    0.033    0.312    0.319
 dbt_reshape                        139 10.9    0.095    0.098    0.291    0.310
 dbm_reserve_blocks                1377 15.5    0.271    0.297    0.271    0.297
 parallel_gemm_cfm                  144 10.4    0.000    0.000    0.284    0.288
 parallel_gemm_cfm_cosma            144 11.4    0.284    0.288    0.284    0.288
 dbt_tas_reserve_blocks_index      1131 14.6    0.007    0.008    0.260    0.285
 pw_derive                          255 11.3    0.240    0.282    0.240    0.282
 cp_cfm_heevd                        17 10.6    0.000    0.000    0.279    0.280
 cp_cfm_heevd_base                   17 11.6    0.279    0.280    0.279    0.280
 cp_cfm_power                        15 10.0    0.000    0.000    0.273    0.274
 pw_copy                            517 10.5    0.250    0.270    0.250    0.270
 eigensolver_symm                    28  6.0    0.002    0.002    0.262    0.263
 pw_poisson_solve                    29  8.0    0.000    0.000    0.254    0.262
 pw_gather_p                        259 11.9    0.203    0.238    0.203    0.238
 cp_fm_diag_elpa                     34  7.2    0.000    0.000    0.233    0.236
 dbt_tas_mm_3N                       32 15.6    0.000    0.000    0.214    0.232
 cp_fm_redistribute_end              34  8.2    0.113    0.219    0.115    0.221
 parallel_gemm_fm_cosma             150  8.4    0.213    0.218    0.213    0.218
 dbt_reserve_blocks_index           562 12.4    0.003    0.004    0.194    0.214
 cp_fm_diag_elpa_base                34  8.2    0.101    0.204    0.104    0.211
 check_sparsity_3c                    1  7.0    0.001    0.002    0.202    0.202
 fft_wrap_pw1pw2_100                 58 10.5    0.008    0.010    0.130    0.191
 dbt_crop                           246 10.9    0.103    0.108    0.179    0.190
 mp_waitall_2                      1352 16.3    0.165    0.186    0.165    0.186
 abc_contract_xsmm               490177 10.6    0.131    0.184    0.131    0.184
 dbm_add                            246 14.4    0.167    0.181    0.167    0.181
 transfer_pw2rs_100                  29 12.0    0.024    0.029    0.133    0.170
 pw_scatter_p                       284 12.3    0.152    0.169    0.152    0.169
 rs_grid_zero                       148 11.2    0.161    0.164    0.161    0.164
 compute_QP_energies                  1  7.0    0.000    0.000    0.164    0.164
 mp_waitall_1                      5888 12.5    0.097    0.164    0.097    0.164
 pw_poisson_set                      30  8.9    0.002    0.002    0.156    0.163
 get_Sigma_x                          1  7.0    0.000    0.000    0.159    0.159
 compute_Sigma_x                      1  8.0    0.000    0.000    0.159    0.159
 dbt_communicate_buffer             139 11.9    0.003    0.004    0.143    0.156
 dbt_reserve_blocks_index_array     400 11.9    0.001    0.001    0.132    0.147
 dbcsr_add_d                       9580  7.1    0.003    0.003    0.029    0.145
 dbcsr_add_anytype                 9580  8.1    0.005    0.030    0.027    0.142
 compute_cfm_W_ikp_freq_j            15 10.0    0.000    0.000    0.140    0.140
 mp_bcast_dm                       1625  9.0    0.137    0.140    0.137    0.140
 to_ikp_and_mo                       32  8.0    0.000    0.000    0.136    0.136
 fm_Gamma_ao_to_cfm_ikp_mo           32  9.0    0.000    0.000    0.133    0.135
 grid_integrate_task_list            29 10.0    0.066    0.132    0.066    0.132
 qs_init_subsys                       1  2.0    0.037    0.040    0.123    0.123
 mp_sum_dm                         2464  7.7    0.093    0.121    0.093    0.121
 dbt_tas_replicate                  246 14.4    0.030    0.040    0.114    0.120
 G_occ_vir                           61  8.0    0.001    0.002    0.116    0.119
 dbcsr_col_vec_to_rep_row          6257  8.0    0.015    0.017    0.103    0.119
 init_scf_run                         1  3.0    0.000    0.000    0.117    0.118
 fm_to_local_tensor                  77  8.0    0.003    0.003    0.115    0.117
 cp_ddapc_apply_CD                   29  9.0    0.001    0.002    0.103    0.117
 pw_copy_to_array                   259 11.9    0.095    0.117    0.095    0.117
 pw_integral_ab_c1d_c1d_gs           58  9.5    0.094    0.096    0.109    0.116
 mp_sum_dv                        18933  8.7    0.097    0.115    0.097    0.115
 mp_alltoall_d11v                  1267 10.9    0.082    0.113    0.082    0.113
 mp_sum_l                          1622 13.7    0.084    0.111    0.084    0.111
 transfer_rs2pw_100                  29  9.0    0.025    0.028    0.088    0.110
 reshape_mm_small                   246 14.4    0.012    0.012    0.098    0.105
 alloc_block_3c                      85 10.5    0.036    0.037    0.099    0.105
 dbt_tas_create_split               821 15.2    0.001    0.001    0.104    0.104
 write_matrix                        46  8.0    0.000    0.000    0.076    0.104
 scf_env_initial_rho_setup            1  4.0    0.000    0.000    0.103    0.103
 dbt_tas_create_split_rows_or_c     821 16.2    0.002    0.003    0.103    0.103
 pw_axpy                            314  9.2    0.086    0.102    0.086    0.102
 rs_gather_matrices                  29 10.0    0.000    0.001    0.069    0.101
 dbcsr_complete_redistribute        265  9.6    0.008    0.010    0.078    0.099
 dbt_tas_distribution_new           656 14.4    0.052    0.053    0.097    0.098
 transfer_pw2rs_40                   29 12.0    0.042    0.045    0.077    0.098
 fm_write                            61  9.0    0.002    0.041    0.054    0.095
 compute_V_xc                         1  7.0    0.001    0.001    0.092    0.092
 dbm_copy                           368 15.5    0.087    0.090    0.087    0.090
 pw_copy_from_array                 284 12.3    0.070    0.083    0.070    0.083
 transfer_rs2pw_40                   29  9.0    0.037    0.039    0.079    0.083
 qs_env_setup                         1  3.0    0.007    0.008    0.083    0.083
 dbt_tas_copy                        77 11.6    0.018    0.021    0.074    0.081
 -------------------------------------------------------------------------------

 The number of warnings for this run is : 2
 
 -------------------------------------------------------------------------------
  **** **** ******  **  PROGRAM ENDED AT                 2026-02-16 17:10:09.248
 ***** ** ***  *** **   PROGRAM RAN ON                                    cn0925
 **    ****   ******    PROGRAM RAN BY                                  eprop2d2
 ***** **    ** ** **   PROGRAM PROCESS ID                                478385
  **** **  *******  **  PROGRAM STOPPED IN /scratch/hpc-prf-metdyn/eprop2d2_Max/
                                           02_lsGW_Nanographenes_Farming_runs/16
                                           _SZV-mini_after_bugfix_dist/01002_GW_
                                           nanographene_2_stripes__BASIS_SET ORB
                                           _aug-SZV-MOLOPT-ae-mini_BASIS_SET RI_
                                           AUX_RI_aug-SZV-MOLOPT-ae-mini_tier1_E
                                           PS_FILTER_1e-8_NUM_TIME_FREQ_POINTS_1
                                           5_POISSON_SOLVER_MULTIPOLE_BASIS_SET_
                                           FILE_NAME_BASIS_augMOLOPT_SR_as_mini
